 Entering Gaussian System, Link 0=g16
 Input=2A_SP.gjf
 Output=2A_SP.log
 Initial command:
 /lustre/home/acct-chenxiangyang/chenxiangyang-user1/software/g16/l1.exe "/lustre/home/acct-chenxiangyang/chenxiangyang-user1/software/tmp/Gau-897971.inp" -scrdir="/lustre/home/acct-chenxiangyang/chenxiangyang-user1/software/tmp/"
 Entering Link 1 = /lustre/home/acct-chenxiangyang/chenxiangyang-user1/software/g16/l1.exe PID=    897972.
  
 Copyright (c) 1988,1990,1992,1993,1995,1998,2003,2009,2016,
            Gaussian, Inc.  All Rights Reserved.
  
 This is part of the Gaussian(R) 16 program.  It is based on
 the Gaussian(R) 09 system (copyright 2009, Gaussian, Inc.),
 the Gaussian(R) 03 system (copyright 2003, Gaussian, Inc.),
 the Gaussian(R) 98 system (copyright 1998, Gaussian, Inc.),
 the Gaussian(R) 94 system (copyright 1995, Gaussian, Inc.),
 the Gaussian 92(TM) system (copyright 1992, Gaussian, Inc.),
 the Gaussian 90(TM) system (copyright 1990, Gaussian, Inc.),
 the Gaussian 88(TM) system (copyright 1988, Gaussian, Inc.),
 the Gaussian 86(TM) system (copyright 1986, Carnegie Mellon
 University), and the Gaussian 82(TM) system (copyright 1983,
 Carnegie Mellon University). Gaussian is a federally registered
 trademark of Gaussian, Inc.
  
 This software contains proprietary and confidential information,
 including trade secrets, belonging to Gaussian, Inc.
  
 This software is provided under written license and may be
 used, copied, transmitted, or stored only in accord with that
 written license.
  
 The following legend is applicable only to US Government
 contracts under FAR:
  
                    RESTRICTED RIGHTS LEGEND
  
 Use, reproduction and disclosure by the US Government is
 subject to restrictions as set forth in subparagraphs (a)
 and (c) of the Commercial Computer Software - Restricted
 Rights clause in FAR 52.227-19.
  
 Gaussian, Inc.
 340 Quinnipiac St., Bldg. 40, Wallingford CT 06492
  
  
 ---------------------------------------------------------------
 Warning -- This program may not be used in any manner that
 competes with the business of Gaussian, Inc. or will provide
 assistance to any competitor of Gaussian, Inc.  The licensee
 of this program is prohibited from giving any competitor of
 Gaussian, Inc. access to this program.  By using this program,
 the user acknowledges that Gaussian, Inc. is engaged in the
 business of creating and licensing software in the field of
 computational chemistry and represents and warrants to the
 licensee that it is not a competitor of Gaussian, Inc. and that
 it will not use this program in any manner prohibited above.
 ---------------------------------------------------------------
  

 Cite this work as:
 Gaussian 16, Revision A.03,
 M. J. Frisch, G. W. Trucks, H. B. Schlegel, G. E. Scuseria, 
 M. A. Robb, J. R. Cheeseman, G. Scalmani, V. Barone, 
 G. A. Petersson, H. Nakatsuji, X. Li, M. Caricato, A. V. Marenich, 
 J. Bloino, B. G. Janesko, R. Gomperts, B. Mennucci, H. P. Hratchian, 
 J. V. Ortiz, A. F. Izmaylov, J. L. Sonnenberg, D. Williams-Young, 
 F. Ding, F. Lipparini, F. Egidi, J. Goings, B. Peng, A. Petrone, 
 T. Henderson, D. Ranasinghe, V. G. Zakrzewski, J. Gao, N. Rega, 
 G. Zheng, W. Liang, M. Hada, M. Ehara, K. Toyota, R. Fukuda, 
 J. Hasegawa, M. Ishida, T. Nakajima, Y. Honda, O. Kitao, H. Nakai, 
 T. Vreven, K. Throssell, J. A. Montgomery, Jr., J. E. Peralta, 
 F. Ogliaro, M. J. Bearpark, J. J. Heyd, E. N. Brothers, K. N. Kudin, 
 V. N. Staroverov, T. A. Keith, R. Kobayashi, J. Normand, 
 K. Raghavachari, A. P. Rendell, J. C. Burant, S. S. Iyengar, 
 J. Tomasi, M. Cossi, J. M. Millam, M. Klene, C. Adamo, R. Cammi, 
 J. W. Ochterski, R. L. Martin, K. Morokuma, O. Farkas, 
 J. B. Foresman, and D. J. Fox, Gaussian, Inc., Wallingford CT, 2016.
 
 ******************************************
 Gaussian 16:  ES64L-G16RevA.03 25-Dec-2016
                 3-Apr-2024 
 ******************************************
 %nprocshared=40
 Will use up to   40 processors via shared memory.
 %chk=2A_SP.chk
 %mem=80GB
 -----------------------------------------------------
 #p pbe1pbe/def2TZVPP em=gd3bj scrf=(smd,solvent=dmso)
 -----------------------------------------------------
 1/38=1,172=1/1;
 2/12=2,17=6,18=5,40=1/2;
 3/5=44,7=202,11=2,25=1,30=1,70=32201,72=21,74=-13,124=41/1,2,3;
 4//1;
 5/5=2,38=5,53=21/2;
 6/7=2,8=2,9=2,10=2,28=1/1;
 99/5=1,9=1/99;
 Leave Link    1 at Wed Apr  3 10:29:17 2024, MaxMem= 10737418240 cpu:               5.8 elap:               0.2
 (Enter /lustre/home/acct-chenxiangyang/chenxiangyang-user1/software/g16/l101.exe)
 -----
 Title
 -----
 Symbolic Z-matrix:
 Charge =  0 Multiplicity = 1
 B                    -0.64384   0.5999   -0.04415 
 O                    -1.68164   0.76267   1.09341 
 O                    -0.87819   1.61816  -1.17563 
 C                    -2.57877   1.64283   0.40173 
 C                    -1.6406    2.54371  -0.4027 
 C                    -3.47818   0.85057  -0.55737 
 C                    -3.47818   2.43527   1.37029 
 C                    -0.7269    3.32597   0.56272 
 C                    -2.38046   3.56189  -1.28543 
 H                    -4.09392   1.52889  -1.11024 
 H                    -4.09823   0.18397   0.00485 
 H                    -2.86981   0.28824  -1.23348 
 H                    -4.0943    1.75716   1.92495 
 H                    -4.09751   3.10408   0.81207 
 H                    -2.86678   2.99421   2.04724 
 H                    -1.32184   3.97378   1.17385 
 H                    -0.02831   3.90803   0.00077 
 H                    -0.19595   2.63721   1.18819 
 H                    -3.02447   3.04538  -1.96156 
 H                    -1.66644   4.13828  -1.837 
 H                    -2.96202   4.21555  -0.66661 
 B                     0.64384  -0.5999   -0.04415 
 O                     1.68164  -0.76267   1.09341 
 O                     0.87819  -1.61816  -1.17563 
 C                     2.57877  -1.64283   0.40173 
 C                     1.6406   -2.54371  -0.4027 
 C                     3.47818  -0.85057  -0.55737 
 C                     3.47818  -2.43527   1.37029 
 C                     0.7269   -3.32597   0.56272 
 C                     2.38046  -3.56189  -1.28543 
 H                     4.09392  -1.52889  -1.11024 
 H                     4.09823  -0.18397   0.00485 
 H                     2.86981  -0.28824  -1.23348 
 H                     4.0943   -1.75716   1.92495 
 H                     4.09751  -3.10408   0.81207 
 H                     2.86678  -2.99421   2.04724 
 H                     1.32184  -3.97378   1.17385 
 H                     0.02831  -3.90803   0.00077 
 H                     0.19595  -2.63721   1.18819 
 H                     3.02447  -3.04538  -1.96156 
 H                     1.66644  -4.13828  -1.837 
 H                     2.96202  -4.21555  -0.66661 
 
 ITRead=  0  0  0  0  0  0  0  0  0  0  0  0  0  0  0  0  0  0  0  0
 ITRead=  0  0  0  0  0  0  0  0  0  0  0  0  0  0  0  0  0  0  0  0
 ITRead=  0  0
 MicOpt= -1 -1 -1 -1 -1 -1 -1 -1 -1 -1 -1 -1 -1 -1 -1 -1 -1 -1 -1 -1
 MicOpt= -1 -1 -1 -1 -1 -1 -1 -1 -1 -1 -1 -1 -1 -1 -1 -1 -1 -1 -1 -1
 MicOpt= -1 -1
 NAtoms=     42 NQM=       42 NQMF=       0 NMMI=      0 NMMIF=      0
                NMic=       0 NMicF=      0.
                    Isotopes and Nuclear Properties:
 (Nuclear quadrupole moments (NQMom) in fm**2, nuclear magnetic moments (NMagM)
  in nuclear magnetons)

  Atom         1           2           3           4           5           6           7           8           9          10
 IAtWgt=          11          16          16          12          12          12          12          12          12           1
 AtmWgt=  11.0093053  15.9949146  15.9949146  12.0000000  12.0000000  12.0000000  12.0000000  12.0000000  12.0000000   1.0078250
 NucSpn=           3           0           0           0           0           0           0           0           0           1
 AtZEff=  -0.0000000  -0.0000000  -0.0000000  -0.0000000  -0.0000000  -0.0000000  -0.0000000  -0.0000000  -0.0000000  -0.0000000
 NQMom=    4.0590000   0.0000000   0.0000000   0.0000000   0.0000000   0.0000000   0.0000000   0.0000000   0.0000000   0.0000000
 NMagM=    2.6886370   0.0000000   0.0000000   0.0000000   0.0000000   0.0000000   0.0000000   0.0000000   0.0000000   2.7928460
 AtZNuc=   5.0000000   8.0000000   8.0000000   6.0000000   6.0000000   6.0000000   6.0000000   6.0000000   6.0000000   1.0000000

  Atom        11          12          13          14          15          16          17          18          19          20
 IAtWgt=           1           1           1           1           1           1           1           1           1           1
 AtmWgt=   1.0078250   1.0078250   1.0078250   1.0078250   1.0078250   1.0078250   1.0078250   1.0078250   1.0078250   1.0078250
 NucSpn=           1           1           1           1           1           1           1           1           1           1
 AtZEff=  -0.0000000  -0.0000000  -0.0000000  -0.0000000  -0.0000000  -0.0000000  -0.0000000  -0.0000000  -0.0000000  -0.0000000
 NQMom=    0.0000000   0.0000000   0.0000000   0.0000000   0.0000000   0.0000000   0.0000000   0.0000000   0.0000000   0.0000000
 NMagM=    2.7928460   2.7928460   2.7928460   2.7928460   2.7928460   2.7928460   2.7928460   2.7928460   2.7928460   2.7928460
 AtZNuc=   1.0000000   1.0000000   1.0000000   1.0000000   1.0000000   1.0000000   1.0000000   1.0000000   1.0000000   1.0000000

  Atom        21          22          23          24          25          26          27          28          29          30
 IAtWgt=           1          11          16          16          12          12          12          12          12          12
 AtmWgt=   1.0078250  11.0093053  15.9949146  15.9949146  12.0000000  12.0000000  12.0000000  12.0000000  12.0000000  12.0000000
 NucSpn=           1           3           0           0           0           0           0           0           0           0
 AtZEff=  -0.0000000  -0.0000000  -0.0000000  -0.0000000  -0.0000000  -0.0000000  -0.0000000  -0.0000000  -0.0000000  -0.0000000
 NQMom=    0.0000000   4.0590000   0.0000000   0.0000000   0.0000000   0.0000000   0.0000000   0.0000000   0.0000000   0.0000000
 NMagM=    2.7928460   2.6886370   0.0000000   0.0000000   0.0000000   0.0000000   0.0000000   0.0000000   0.0000000   0.0000000
 AtZNuc=   1.0000000   5.0000000   8.0000000   8.0000000   6.0000000   6.0000000   6.0000000   6.0000000   6.0000000   6.0000000

  Atom        31          32          33          34          35          36          37          38          39          40
 IAtWgt=           1           1           1           1           1           1           1           1           1           1
 AtmWgt=   1.0078250   1.0078250   1.0078250   1.0078250   1.0078250   1.0078250   1.0078250   1.0078250   1.0078250   1.0078250
 NucSpn=           1           1           1           1           1           1           1           1           1           1
 AtZEff=  -0.0000000  -0.0000000  -0.0000000  -0.0000000  -0.0000000  -0.0000000  -0.0000000  -0.0000000  -0.0000000  -0.0000000
 NQMom=    0.0000000   0.0000000   0.0000000   0.0000000   0.0000000   0.0000000   0.0000000   0.0000000   0.0000000   0.0000000
 NMagM=    2.7928460   2.7928460   2.7928460   2.7928460   2.7928460   2.7928460   2.7928460   2.7928460   2.7928460   2.7928460
 AtZNuc=   1.0000000   1.0000000   1.0000000   1.0000000   1.0000000   1.0000000   1.0000000   1.0000000   1.0000000   1.0000000

  Atom        41          42
 IAtWgt=           1           1
 AtmWgt=   1.0078250   1.0078250
 NucSpn=           1           1
 AtZEff=  -0.0000000  -0.0000000
 NQMom=    0.0000000   0.0000000
 NMagM=    2.7928460   2.7928460
 AtZNuc=   1.0000000   1.0000000
 Leave Link  101 at Wed Apr  3 10:29:17 2024, MaxMem= 10737418240 cpu:               3.4 elap:               0.1
 (Enter /lustre/home/acct-chenxiangyang/chenxiangyang-user1/software/g16/l202.exe)
                          Input orientation:                          
 ---------------------------------------------------------------------
 Center     Atomic      Atomic             Coordinates (Angstroms)
 Number     Number       Type             X           Y           Z
 ---------------------------------------------------------------------
      1          5           0       -0.643837    0.599895   -0.044146
      2          8           0       -1.681644    0.762670    1.093409
      3          8           0       -0.878192    1.618163   -1.175632
      4          6           0       -2.578773    1.642827    0.401732
      5          6           0       -1.640599    2.543709   -0.402695
      6          6           0       -3.478184    0.850569   -0.557365
      7          6           0       -3.478184    2.435268    1.370289
      8          6           0       -0.726896    3.325968    0.562716
      9          6           0       -2.380464    3.561892   -1.285432
     10          1           0       -4.093917    1.528887   -1.110236
     11          1           0       -4.098235    0.183974    0.004847
     12          1           0       -2.869814    0.288239   -1.233483
     13          1           0       -4.094296    1.757163    1.924950
     14          1           0       -4.097509    3.104083    0.812073
     15          1           0       -2.866777    2.994214    2.047242
     16          1           0       -1.321836    3.973780    1.173850
     17          1           0       -0.028308    3.908029    0.000767
     18          1           0       -0.195948    2.637211    1.188188
     19          1           0       -3.024465    3.045377   -1.961555
     20          1           0       -1.666435    4.138284   -1.836998
     21          1           0       -2.962019    4.215548   -0.666609
     22          5           0        0.643837   -0.599895   -0.044146
     23          8           0        1.681644   -0.762670    1.093409
     24          8           0        0.878192   -1.618163   -1.175632
     25          6           0        2.578773   -1.642827    0.401732
     26          6           0        1.640599   -2.543709   -0.402695
     27          6           0        3.478184   -0.850569   -0.557365
     28          6           0        3.478184   -2.435268    1.370289
     29          6           0        0.726896   -3.325968    0.562716
     30          6           0        2.380464   -3.561892   -1.285432
     31          1           0        4.093917   -1.528887   -1.110236
     32          1           0        4.098235   -0.183974    0.004847
     33          1           0        2.869814   -0.288239   -1.233483
     34          1           0        4.094296   -1.757163    1.924950
     35          1           0        4.097509   -3.104083    0.812073
     36          1           0        2.866777   -2.994214    2.047242
     37          1           0        1.321836   -3.973780    1.173850
     38          1           0        0.028308   -3.908029    0.000767
     39          1           0        0.195948   -2.637211    1.188188
     40          1           0        3.024465   -3.045377   -1.961555
     41          1           0        1.666435   -4.138284   -1.836998
     42          1           0        2.962019   -4.215548   -0.666609
 ---------------------------------------------------------------------
                    Distance matrix (angstroms):
                    1          2          3          4          5
     1  B    0.000000
     2  O    1.548409   0.000000
     3  O    1.540147   2.554594   0.000000
     4  C    2.242876   1.434550   2.319625   0.000000
     5  C    2.213708   2.326395   1.426650   1.529334   0.000000
     6  C    2.891324   2.441380   2.780542   1.535083   2.503470
     7  C    3.660976   2.470183   3.729522   1.541105   2.555768
     8  C    2.794039   2.786337   2.441586   2.507654   1.542336
     9  C    3.651040   3.739369   2.459057   2.562940   1.537310
    10  H    3.728623   3.355920   3.217629   2.143523   2.747589
    11  H    3.479692   2.712889   3.717406   2.143487   3.431387
    12  H    2.542956   2.655421   2.395538   2.143255   2.699689
    13  H    4.137907   2.738862   4.469480   2.151761   3.472350
    14  H    4.351082   3.376058   4.064841   2.147139   2.797514
    15  H    3.879192   2.700764   4.029256   2.148696   2.776447
    16  H    3.650520   3.232207   3.356459   2.758514   2.152256
    17  H    3.365211   3.717616   2.711034   3.434645   2.150263
    18  H    2.422789   2.393779   2.662998   2.699105   2.150969
    19  H    3.914617   4.043108   2.694643   2.784046   2.144015
    20  H    4.096367   4.470155   2.722084   3.474418   2.144892
    21  H    4.339859   4.081592   3.368657   2.811961   2.147288
    22  B    1.760000   2.925487   2.918324   3.951433   3.902493
    23  O    2.925487   3.693016   4.167694   4.941253   4.920139
    24  O    2.918324   4.167694   3.682213   5.007269   4.925740
    25  C    3.951433   4.941253   5.007269   6.115211   5.998107
    26  C    3.902493   4.920139   4.925740   5.998107   6.053766
    27  C    4.399806   5.652559   5.045285   6.619941   6.143858
    28  C    5.310734   6.076783   6.472251   7.365846   7.357691
    29  C    4.202332   4.774899   5.481112   5.970116   6.402356
    30  C    5.292226   6.392296   6.120773   7.384420   7.363867
    31  H    5.302318   6.592753   5.884732   7.541260   7.069040
    32  H    4.806672   5.957189   5.422735   6.933769   6.367147
    33  H    3.814321   5.218679   4.205385   6.007499   5.390173
    34  H    5.646500   6.356296   6.762549   7.642642   7.536873
    35  H    6.077247   6.959133   7.142001   8.202090   8.142426
    36  H    5.442052   5.975961   6.759122   7.339201   7.548988
    37  H    5.125026   5.609039   6.452133   6.881656   7.330701
    38  H    4.557979   5.092468   5.722277   6.145701   6.676298
    39  H    3.564091   3.885039   4.984940   5.161038   5.722390
    40  H    5.515515   6.780965   6.131640   7.678584   7.445183
    41  H    5.567945   6.619386   6.328445   7.513651   7.592281
    42  H    6.047987   7.031637   7.002750   8.134020   8.181766
                    6          7          8          9         10
     6  C    0.000000
     7  C    2.495420   0.000000
     8  C    3.866752   3.002517   0.000000
     9  C    3.014356   3.086604   2.491104   0.000000
    10  H    1.070004   2.711763   4.167145   2.664531   0.000000
    11  H    1.069997   2.705036   4.642119   4.003235   1.747060
    12  H    1.069329   3.429209   4.128708   3.310433   1.747234
    13  H    2.713558   1.071013   3.956793   4.062120   3.043758
    14  H    2.708736   1.068870   3.387100   2.749065   2.485262
    15  H    3.428266   1.069815   2.625446   3.415476   3.690897
    16  H    4.171497   2.656209   1.071027   2.708951   4.344995
    17  H    4.643406   3.993277   1.068928   2.703101   4.839816
    18  H    4.124575   3.293481   1.071218   3.427235   4.658894
    19  H    2.644767   3.417496   3.424836   1.067084   2.041620
    20  H    3.965976   4.058249   2.702077   1.070649   3.637280
    21  H    3.406089   2.754047   2.701549   1.071641   2.948923
    22  B    4.399806   5.310734   4.202332   5.292226   5.302318
    23  O    5.652559   6.076783   4.774899   6.392296   6.592753
    24  O    5.045285   6.472251   5.481112   6.120773   5.884732
    25  C    6.619941   7.365846   5.970116   7.384420   7.541260
    26  C    6.143858   7.357691   6.402356   7.363867   7.069040
    27  C    7.161349   7.931181   6.031645   7.370458   7.956393
    28  C    7.931181   8.491948   7.178211   8.794461   8.899677
    29  C    6.031645   7.178211   6.808947   7.779071   7.043339
    30  C    7.370458   8.794461   7.779071   8.568240   8.237981
    31  H    7.956393   8.899677   7.043339   8.237981   8.740172
    32  H    7.667365   8.131850   5.992729   7.594068   8.443261
    33  H    6.484682   7.382019   5.406029   6.510885   7.197964
    34  H    8.384784   8.673326   7.137072   8.973373   9.330451
    35  H    8.654811   9.401443   8.042550   9.528845   9.605162
    36  H    7.862879   8.378310   7.420445   9.034533   8.881406
    37  H    7.022225   8.009661   7.606386   8.748797   8.051508
    38  H    5.937277   7.376211   7.294987   7.953377   6.912823
    39  H    5.358247   6.265976   6.066495   7.154409   6.406408
    40  H    7.709383   9.133625   7.812726   8.563084   8.504117
    41  H    7.279644   8.942336   8.197665   8.716325   8.113363
    42  H    8.194736   9.479373   8.484916   9.455879   9.109422
                   11         12         13         14         15
    11  H    0.000000
    12  H    1.747384   0.000000
    13  H    2.482284   3.692261   0.000000
    14  H    3.029629   3.690598   1.747197   0.000000
    15  H    3.685826   4.252701   1.747013   1.747116   0.000000
    16  H    4.841238   4.666337   3.628233   2.931146   2.027118
    17  H    5.516603   4.764495   4.986077   4.226458   3.616632
    18  H    4.758835   4.304848   4.063794   3.947355   2.828207
    19  H    3.634191   2.855839   4.231897   2.974539   4.012223
    20  H    4.994258   4.078627   5.071144   3.741293   4.223392
    21  H    4.242102   3.969081   3.747250   2.170528   2.977535
    22  B    4.806672   3.814321   5.646500   6.077247   5.442052
    23  O    5.957189   5.218679   6.356296   6.959133   5.975961
    24  O    5.422735   4.205385   6.762549   7.142001   6.759122
    25  C    6.933769   6.007499   7.642642   8.202090   7.339201
    26  C    6.367147   5.390173   7.536873   8.142426   7.548988
    27  C    7.667365   6.484682   8.384784   8.654811   7.862879
    28  C    8.131850   7.382019   8.673326   9.401443   8.378310
    29  C    5.992729   5.406029   7.137072   8.042550   7.420445
    30  C    7.594068   6.510885   8.973373   9.528845   9.034533
    31  H    8.443261   7.197964   9.330451   9.605162   8.881406
    32  H    8.204725   7.092965   8.635530   8.867534   7.923613
    33  H    7.092965   5.768506   7.915693   8.014720   7.378762
    34  H    8.635530   7.915693   8.910866   9.590405   8.428943
    35  H    8.867534   8.014720   9.590405  10.281033   9.338959
    36  H    7.923613   7.378762   8.428943   9.338959   8.290652
    37  H    6.930415   6.444376   7.921007   8.921677   8.176811
    38  H    5.811442   5.247013   7.265862   8.176203   7.759545
    39  H    5.272513   4.880742   6.185429   7.178976   6.467705
    40  H    8.064013   6.810698   9.425819   9.809760   9.340977
    41  H    7.436782   6.366780   9.060605   9.627695   9.301068
    42  H    8.345887   7.390245   9.601096  10.276207   9.660255
                   16         17         18         19         20
    16  H    0.000000
    17  H    1.747473   0.000000
    18  H    1.747640   1.747298   0.000000
    19  H    3.686684   3.683997   4.252998   0.000000
    20  H    3.034966   2.472622   3.683382   1.747629   0.000000
    21  H    2.477083   3.024338   3.685454   1.746449   1.747661
    22  B    5.125026   4.557979   3.564091   5.515515   5.567945
    23  O    5.609039   5.092468   3.885039   6.780965   6.619386
    24  O    6.452133   5.722277   4.984940   6.131640   6.328445
    25  C    6.881656   6.145701   5.161038   7.678584   7.513651
    26  C    7.330701   6.676298   5.722390   7.445183   7.592281
    27  C    7.022225   5.937277   5.358247   7.709383   7.279644
    28  C    8.009661   7.376211   6.265976   9.133625   8.942336
    29  C    7.606386   7.294987   6.066495   7.812726   8.197665
    30  C    8.748797   7.953377   7.154409   8.563084   8.716325
    31  H    8.051508   6.912823   6.406408   8.504117   8.113363
    32  H    6.930415   5.811442   5.272513   8.064013   7.436782
    33  H    6.444376   5.247013   4.880742   6.810698   6.366780
    34  H    7.921007   7.265862   6.185429   9.425819   9.060605
    35  H    8.921677   8.176203   7.178976   9.809760   9.627695
    36  H    8.176811   7.759545   6.467705   9.340977   9.301068
    37  H    8.375722   8.082198   6.782999   8.831176   9.154264
    38  H    8.082198   7.816263   6.655857   7.843468   8.425716
    39  H    6.782999   6.655857   5.288961   7.251465   7.650330
    40  H    8.831176   7.843468   7.251465   8.584104   8.580504
    41  H    9.154264   8.425716   7.650330   8.580504   8.922421
    42  H    9.423577   8.682163   7.770028   9.499258   9.621793
                   21         22         23         24         25
    21  H    0.000000
    22  B    6.047987   0.000000
    23  O    7.031637   1.548409   0.000000
    24  O    7.002750   1.540147   2.554594   0.000000
    25  C    8.134020   2.242876   1.434550   2.319625   0.000000
    26  C    8.181766   2.213708   2.326395   1.426650   1.529334
    27  C    8.194736   2.891324   2.441380   2.780542   1.535083
    28  C    9.479373   3.660976   2.470183   3.729522   1.541105
    29  C    8.484916   2.794039   2.786337   2.441586   2.507654
    30  C    9.455879   3.651040   3.739369   2.459057   2.562940
    31  H    9.109422   3.728623   3.355920   3.217629   2.143523
    32  H    8.345887   3.479692   2.712889   3.717406   2.143487
    33  H    7.390245   2.542956   2.655421   2.395538   2.143255
    34  H    9.601096   4.137907   2.738862   4.469480   2.151761
    35  H   10.276207   4.351082   3.376058   4.064841   2.147139
    36  H    9.660255   3.879192   2.700764   4.029256   2.148696
    37  H    9.423577   3.650520   3.232207   3.356459   2.758514
    38  H    8.682163   3.365211   3.717616   2.711034   3.434645
    39  H    7.770028   2.422789   2.393779   2.662998   2.699105
    40  H    9.499258   3.914617   4.043108   2.694643   2.784046
    41  H    9.621793   4.096367   4.470155   2.722084   3.474418
    42  H   10.304252   4.339859   4.081592   3.368657   2.811961
                   26         27         28         29         30
    26  C    0.000000
    27  C    2.503470   0.000000
    28  C    2.555768   2.495420   0.000000
    29  C    1.542336   3.866752   3.002517   0.000000
    30  C    1.537310   3.014356   3.086604   2.491104   0.000000
    31  H    2.747589   1.070004   2.711763   4.167145   2.664531
    32  H    3.431387   1.069997   2.705036   4.642119   4.003235
    33  H    2.699689   1.069329   3.429209   4.128708   3.310433
    34  H    3.472350   2.713558   1.071013   3.956793   4.062120
    35  H    2.797514   2.708736   1.068870   3.387100   2.749065
    36  H    2.776447   3.428266   1.069815   2.625446   3.415476
    37  H    2.152256   4.171497   2.656209   1.071027   2.708951
    38  H    2.150263   4.643406   3.993277   1.068928   2.703101
    39  H    2.150969   4.124575   3.293481   1.071218   3.427235
    40  H    2.144015   2.644767   3.417496   3.424836   1.067084
    41  H    2.144892   3.965976   4.058249   2.702077   1.070649
    42  H    2.147288   3.406089   2.754047   2.701549   1.071641
                   31         32         33         34         35
    31  H    0.000000
    32  H    1.747060   0.000000
    33  H    1.747234   1.747384   0.000000
    34  H    3.043758   2.482284   3.692261   0.000000
    35  H    2.485262   3.029629   3.690598   1.747197   0.000000
    36  H    3.690897   3.685826   4.252701   1.747013   1.747116
    37  H    4.344995   4.841238   4.666337   3.628233   2.931146
    38  H    4.839816   5.516603   4.764495   4.986077   4.226458
    39  H    4.658894   4.758835   4.304848   4.063794   3.947355
    40  H    2.041620   3.634191   2.855839   4.231897   2.974539
    41  H    3.637280   4.994258   4.078627   5.071144   3.741293
    42  H    2.948923   4.242102   3.969081   3.747250   2.170528
                   36         37         38         39         40
    36  H    0.000000
    37  H    2.027118   0.000000
    38  H    3.616632   1.747473   0.000000
    39  H    2.828207   1.747640   1.747298   0.000000
    40  H    4.012223   3.686684   3.683997   4.252998   0.000000
    41  H    4.223392   3.034966   2.472622   3.683382   1.747629
    42  H    2.977535   2.477083   3.024338   3.685454   1.746449
                   41         42
    41  H    0.000000
    42  H    1.747661   0.000000
 Stoichiometry    C12H24B2O4
 Framework group  C2[X(C12H24B2O4)]
 Deg. of freedom    61
 Full point group                 C2      NOp   2
 Largest Abelian subgroup         C2      NOp   2
 Largest concise Abelian subgroup C2      NOp   2
                         Standard orientation:                         
 ---------------------------------------------------------------------
 Center     Atomic      Atomic             Coordinates (Angstroms)
 Number     Number       Type             X           Y           Z
 ---------------------------------------------------------------------
      1          5           0       -0.027636    0.879566   -0.044146
      2          8           0       -0.643056    1.730916    1.093409
      3          8           0        0.530130    1.763132   -1.175632
      4          6           0       -0.650148    2.987684    0.401732
      5          6           0        0.650148    2.956235   -0.402695
      6          6           0       -1.846034    3.068125   -0.557365
      7          6           0       -0.721114    4.184291    1.370289
      8          6           0        1.849002    2.858607    0.562716
      9          6           0        0.851803    4.198585   -1.285432
     10          1           0       -1.798205    3.982978   -1.110236
     11          1           0       -2.755951    3.038768    0.004847
     12          1           0       -1.816712    2.240194   -1.233483
     13          1           0       -1.636427    4.144030    1.924950
     14          1           0       -0.682561    5.095000    0.812073
     15          1           0        0.106300    4.143963    2.047242
     16          1           0        1.889821    3.737212    1.173850
     17          1           0        2.754229    2.772673    0.000767
     18          1           0        1.734046    1.996588    1.188188
     19          1           0        0.031553    4.291936   -1.961555
     20          1           0        1.763881    4.097697   -1.836998
     21          1           0        0.906198    5.071805   -0.666609
     22          5           0        0.027636   -0.879566   -0.044146
     23          8           0        0.643056   -1.730916    1.093409
     24          8           0       -0.530130   -1.763132   -1.175632
     25          6           0        0.650148   -2.987684    0.401732
     26          6           0       -0.650148   -2.956235   -0.402695
     27          6           0        1.846034   -3.068125   -0.557365
     28          6           0        0.721114   -4.184291    1.370289
     29          6           0       -1.849002   -2.858607    0.562716
     30          6           0       -0.851803   -4.198585   -1.285432
     31          1           0        1.798205   -3.982978   -1.110236
     32          1           0        2.755951   -3.038768    0.004847
     33          1           0        1.816712   -2.240194   -1.233483
     34          1           0        1.636427   -4.144030    1.924950
     35          1           0        0.682561   -5.095000    0.812073
     36          1           0       -0.106300   -4.143963    2.047242
     37          1           0       -1.889821   -3.737212    1.173850
     38          1           0       -2.754229   -2.772673    0.000767
     39          1           0       -1.734046   -1.996588    1.188188
     40          1           0       -0.031553   -4.291936   -1.961555
     41          1           0       -1.763881   -4.097697   -1.836998
     42          1           0       -0.906198   -5.071805   -0.666609
 ---------------------------------------------------------------------
 Rotational constants (GHZ):           0.9333126           0.2027770           0.1969558
 Leave Link  202 at Wed Apr  3 10:29:18 2024, MaxMem= 10737418240 cpu:               0.2 elap:               0.0
 (Enter /lustre/home/acct-chenxiangyang/chenxiangyang-user1/software/g16/l301.exe)
 Standard basis: def2TZVPP (5D, 7F)
 Ernie: Thresh=  0.10000D-02 Tol=  0.10000D-05 Strict=F.
 There are   504 symmetry adapted cartesian basis functions of A   symmetry.
 There are   504 symmetry adapted cartesian basis functions of B   symmetry.
 There are   447 symmetry adapted basis functions of A   symmetry.
 There are   447 symmetry adapted basis functions of B   symmetry.
   894 basis functions,  1326 primitive gaussians,  1008 cartesian basis functions
    69 alpha electrons       69 beta electrons
       nuclear repulsion energy      1424.7390813537 Hartrees.
 IExCor= 1009 DFT=T Ex+Corr=PBE1PBE ExCW=0 ScaHFX=  0.250000
 ScaDFX=  0.750000  0.750000  1.000000  1.000000 ScalE2=  1.000000  1.000000
 IRadAn=      5 IRanWt=     -1 IRanGd=            0 ICorTp=0 IEmpDi=141
 NAtoms=   42 NActive=   42 NUniq=   21 SFac= 4.00D+00 NAtFMM=   60 NAOKFM=F Big=F
 Integral buffers will be    131072 words long.
 Raffenetti 2 integral format.
 Two-electron integral symmetry is turned on.
 R6Disp:  Grimme-D3(BJ) Dispersion energy=       -0.0417834352 Hartrees.
 Nuclear repulsion after empirical dispersion term =     1424.6972979185 Hartrees.
 ------------------------------------------------------------------------------
 Polarizable Continuum Model (PCM)
 =================================
 Model                : PCM.
 Atomic radii         : SMD-Coulomb.
 Polarization charges : Total charges.
 Charge compensation  : None.
 Solution method      : On-the-fly selection.
 Cavity type          : VdW (van der Waals Surface) (Alpha=1.000).
 Cavity algorithm     : GePol (No added spheres)
                        Default sphere list used, NSphG=   42.
                        Lebedev-Laikov grids with approx.  5.0 points / Ang**2.
                        Smoothing algorithm: York/Karplus (Gamma=1.0000).
                        Polarization charges: spherical gaussians, with
                                              point-specific exponents (IZeta= 3).
                        Self-potential: point-specific (ISelfS= 7).
                        Self-field    : sphere-specific E.n sum rule (ISelfD= 2).
 Solvent              : DiMethylSulfoxide, Eps=  46.826000 Eps(inf)=   2.007889
 ------------------------------------------------------------------------------
 GePol: Number of generator spheres                  =      42
 GePol: Total number of spheres                      =      42
 GePol: Number of exposed spheres                    =      42 (100.00%)
 GePol: Number of points                             =    2680
 GePol: Average weight of points                     =       0.12
 GePol: Minimum weight of points                     =   0.33D-09
 GePol: Maximum weight of points                     =    0.17992
 GePol: Number of points with low weight             =     162
 GePol: Fraction of low-weight points (<1% of avg)   =       6.04%
 GePol: Cavity surface area                          =    312.045 Ang**2
 GePol: Cavity volume                                =    323.383 Ang**3
 ------------------------------------------------------------------------------
 Atomic radii for non-electrostatic terms: SMD-CDS.
 ------------------------------------------------------------------------------
 PCM non-electrostatic energy =        -0.0000621710 Hartrees.
 Nuclear repulsion after PCM non-electrostatic terms =     1424.6972357475 Hartrees.
 Leave Link  301 at Wed Apr  3 10:29:18 2024, MaxMem= 10737418240 cpu:               3.7 elap:               0.1
 (Enter /lustre/home/acct-chenxiangyang/chenxiangyang-user1/software/g16/l302.exe)
 NPDir=0 NMtPBC=     1 NCelOv=     1 NCel=       1 NClECP=     1 NCelD=      1
         NCelK=      1 NCelE2=     1 NClLst=     1 CellRange=     0.0.
 One-electron integrals computed using PRISM.
 One-electron integral symmetry used in STVInt
   2 Symmetry operations used in ECPInt.
 ECPInt:  NShTT=   58653 NPrTT=  153096 LenC2=   49438 LenP2D=   97274.
 LDataN:  DoStor=T MaxTD1= 6 Len=  172
 NBasis=   894 RedAO= T EigKep=  5.46D-06  NBF=   447   447
 NBsUse=   894 1.00D-06 EigRej= -1.00D+00 NBFU=   447   447
 Precomputing XC quadrature grid using
 IXCGrd= 4 IRadAn=           5 IRanWt=          -1 IRanGd=           0 AccXCQ= 0.00D+00.
 Generated NRdTot=       0 NPtTot=           0 NUsed=           0 NTot=          32
 NSgBfM=   996   996   996   996   996 MxSgAt=    42 MxSgA2=    42.
 Leave Link  302 at Wed Apr  3 10:29:19 2024, MaxMem= 10737418240 cpu:              39.2 elap:               1.0
 (Enter /lustre/home/acct-chenxiangyang/chenxiangyang-user1/software/g16/l303.exe)
 DipDrv:  MaxL=1.
 Leave Link  303 at Wed Apr  3 10:29:19 2024, MaxMem= 10737418240 cpu:               5.2 elap:               0.2
 (Enter /lustre/home/acct-chenxiangyang/chenxiangyang-user1/software/g16/l401.exe)
 ExpMin= 6.06D-02 ExpMax= 2.70D+04 ExpMxC= 9.22D+02 IAcc=3 IRadAn=         5 AccDes= 0.00D+00
 Harris functional with IExCor= 1009 and IRadAn=       5 diagonalized for initial guess.
 HarFok:  IExCor= 1009 AccDes= 0.00D+00 IRadAn=         5 IDoV= 1 UseB2=F ITyADJ=14
 ICtDFT=  3500011 ScaDFX=  1.000000  1.000000  1.000000  1.000000
 FoFCou: FMM=F IPFlag=           0 FMFlag=      100000 FMFlg1=           0
         NFxFlg=           0 DoJE=T BraDBF=F KetDBF=T FulRan=T
         wScrn=  0.000000 ICntrl=       500 IOpCl=  0 I1Cent=   200000004 NGrid=           0
         NMat0=    1 NMatS0=      1 NMatT0=    0 NMatD0=    1 NMtDS0=    0 NMtDT0=    0
 Petite list used in FoFCou.
 Harris En= -822.178299525376    
 JPrj=0 DoOrth=F DoCkMO=F.
 Initial guess orbital symmetries:
       Occupied  (A) (B) (A) (B) (B) (A) (A) (B) (B) (A) (A) (B)
                 (B) (A) (B) (A) (A) (B) (A) (B) (A) (B) (A) (B)
                 (A) (B) (B) (A) (B) (A) (A) (B) (A) (B) (A) (B)
                 (A) (A) (B) (B) (A) (B) (A) (B) (A) (A) (B) (A)
                 (B) (B) (A) (B) (A) (B) (A) (B) (A) (B) (A) (B)
                 (A) (B) (A) (B) (B) (A) (A) (B) (A)
       Virtual   (B) (A) (A) (B) (A) (B) (B) (A) (B) (A) (A) (B)
                 (A) (B) (B) (A) (B) (A) (B) (A) (B) (A) (A) (B)
                 (B) (A) (B) (B) (A) (A) (A) (B) (B) (A) (B) (A)
                 (B) (A) (B) (A) (A) (B) (A) (A) (B) (B) (A) (A)
                 (A) (B) (A) (B) (B) (B) (A) (B) (A) (A) (B) (B)
                 (A) (A) (B) (A) (B) (B) (A) (A) (B) (B) (B) (A)
                 (A) (B) (B) (B) (A) (A) (B) (A) (B) (A) (B) (B)
                 (A) (A) (A) (A) (B) (B) (A) (B) (B) (A) (B) (A)
                 (B) (A) (B) (B) (A) (A) (B) (B) (A) (A) (B) (A)
                 (B) (A) (B) (B) (A) (B) (A) (B) (A) (A) (B) (A)
                 (B) (A) (B) (A) (A) (B) (A) (B) (B) (A) (B) (B)
                 (A) (A) (A) (B) (A) (A) (B) (B) (B) (B) (A) (A)
                 (B) (A) (B) (B) (A) (A) (B) (A) (B) (B) (A) (B)
                 (A) (B) (B) (A) (A) (B) (A) (A) (B) (A) (B) (A)
                 (B) (B) (A) (A) (B) (A) (B) (A) (A) (B) (A) (B)
                 (B) (B) (A) (A) (B) (A) (A) (B) (A) (A) (B) (B)
                 (B) (A) (A) (B) (B) (A) (A) (B) (A) (B) (B) (A)
                 (B) (A) (B) (A) (B) (A) (B) (A) (A) (B) (A) (B)
                 (B) (B) (A) (A) (A) (A) (B) (B) (A) (B) (B) (B)
                 (A) (B) (A) (A) (B) (B) (B) (A) (A) (B) (A) (B)
                 (A) (A) (B) (B) (A) (A) (B) (A) (A) (B) (B) (A)
                 (B) (B) (A) (A) (B) (A) (B) (B) (A) (A) (B) (B)
                 (A) (A) (B) (A) (B) (B) (A) (A) (B) (B) (A) (A)
                 (B) (A) (B) (A) (B) (A) (A) (B) (B) (A) (A) (B)
                 (B) (A) (A) (B) (A) (B) (A) (B) (A) (B) (A) (B)
                 (A) (A) (B) (B) (A) (B) (A) (B) (B) (A) (B) (A)
                 (A) (B) (A) (B) (B) (A) (B) (A) (B) (A) (A) (A)
                 (B) (A) (B) (B) (A) (B) (B) (A) (B) (B) (A) (A)
                 (B) (A) (B) (A) (A) (A) (A) (B) (B) (B) (A) (A)
                 (B) (A) (A) (B) (B) (B) (A) (B) (A) (A) (B) (B)
                 (B) (A) (A) (B) (B) (A) (B) (B) (A) (B) (A) (A)
                 (B) (A) (B) (B) (A) (B) (A) (A) (B) (B) (A) (A)
                 (B) (A) (B) (A) (B) (B) (A) (A) (B) (A) (B) (A)
                 (B) (B) (A) (B) (B) (A) (B) (A) (A) (A) (B) (A)
                 (B) (B) (A) (B) (A) (B) (A) (B) (A) (A) (B) (A)
                 (A) (B) (B) (A) (A) (A) (B) (B) (A) (B) (B) (A)
                 (B) (A) (B) (A) (B) (A) (B) (A) (B) (B) (A) (B)
                 (A) (A) (B) (A) (B) (A) (B) (A) (B) (A) (B) (B)
                 (B) (A) (A) (A) (B) (B) (A) (A) (B) (A) (A) (B)
                 (B) (A) (A) (B) (A) (B) (B) (A) (B) (A) (A) (B)
                 (A) (B) (B) (A) (B) (A) (B) (A) (B) (A) (A) (B)
                 (A) (A) (B) (B) (A) (B) (A) (B) (B) (B) (A) (A)
                 (A) (B) (B) (A) (B) (A) (A) (B) (B) (A) (B) (A)
                 (B) (A) (B) (A) (B) (A) (B) (A) (B) (B) (A) (A)
                 (B) (B) (A) (B) (A) (A) (B) (A) (B) (A) (B) (B)
                 (B) (A) (A) (A) (B) (A) (B) (A) (B) (B) (A) (A)
                 (B) (A) (B) (B) (A) (A) (B) (B) (A) (B) (A) (B)
                 (A) (B) (A) (A) (B) (B) (B) (A) (A) (B) (A) (A)
                 (B) (A) (A) (B) (B) (B) (A) (A) (B) (A) (B) (A)
                 (A) (B) (B) (A) (B) (B) (A) (A) (B) (A) (B) (B)
                 (A) (A) (B) (B) (A) (B) (A) (A) (B) (A) (B) (B)
                 (A) (A) (B) (B) (A) (B) (A) (A) (B) (A) (B) (A)
                 (B) (B) (A) (A) (B) (B) (A) (A) (B) (A) (B) (A)
                 (B) (B) (A) (B) (A) (B) (A) (A) (B) (A) (B) (A)
                 (B) (B) (A) (B) (A) (B) (A) (A) (B) (A) (B) (B)
                 (A) (B) (A) (B) (A) (B) (A) (A) (B) (A) (B) (B)
                 (A) (A) (B) (A) (B) (A) (B) (A) (B) (B) (A) (B)
                 (A) (A) (B) (A) (B) (A) (B) (A) (B) (A) (B) (B)
                 (A) (A) (B) (B) (B) (A) (A) (B) (B) (A) (A) (B)
                 (A) (A) (B) (A) (A) (B) (B) (A) (B) (B) (A) (A)
                 (B) (A) (A) (B) (B) (A) (B) (A) (B) (B) (A) (A)
                 (A) (B) (B) (A) (A) (B) (B) (A) (B) (A) (B) (A)
                 (B) (A) (A) (B) (B) (A) (A) (B) (B) (B) (A) (A)
                 (B) (A) (B) (A) (B) (A) (B) (A) (A) (B) (A) (B)
                 (A) (B) (A) (B) (B) (B) (A) (A) (B) (A) (B) (B)
                 (A) (B) (A) (A) (B) (B) (A) (A) (A) (B) (A) (B)
                 (A) (B) (B) (A) (A) (B) (B) (A) (B) (A) (B) (A)
                 (B) (A) (B) (A) (B) (B) (A) (A) (B) (A) (B) (A)
                 (B) (B) (A) (A) (B) (B) (A) (B) (A)
 The electronic state of the initial guess is 1-A.
 Leave Link  401 at Wed Apr  3 10:29:21 2024, MaxMem= 10737418240 cpu:              64.4 elap:               1.7
 (Enter /lustre/home/acct-chenxiangyang/chenxiangyang-user1/software/g16/l502.exe)
 Integral symmetry usage will be decided dynamically.
 Closed shell SCF:
 Using DIIS extrapolation, IDIIS=  1040.
 NGot= 10737418240 LenX= 10735334786 LenY= 10734317714
 Requested convergence on RMS density matrix=1.00D-08 within 128 cycles.
 Requested convergence on MAX density matrix=1.00D-06.
 Requested convergence on             energy=1.00D-06.
 No special actions if energy rises.
 Fock matrices will be formed incrementally for  20 cycles.

 Cycle   1  Pass 1  IDiag  1:
 FoFJK:  IHMeth= 1 ICntrl=       0 DoSepK=F KAlg= 0 I1Cent=           0 FoldK=F
 IRaf= 760000000 NMat=       1 IRICut=       1 DoRegI=T DoRafI=F ISym2E= 1 IDoP0=0 IntGTp=1.
 FoFCou: FMM=F IPFlag=           0 FMFlag=      100000 FMFlg1=           0
         NFxFlg=           0 DoJE=F BraDBF=F KetDBF=F FulRan=T
         wScrn=  0.000000 ICntrl=         0 IOpCl=  0 I1Cent=           0 NGrid=           0
         NMat0=    1 NMatS0=      1 NMatT0=    0 NMatD0=    1 NMtDS0=    0 NMtDT0=    0
 Petite list used in FoFCou.
 Inv3:  Mode=1 IEnd=    21547200.
 Iteration    1 A*A^-1 deviation from unit magnitude is 3.44D-15 for   1277.
 Iteration    1 A*A^-1 deviation from orthogonality  is 2.10D-15 for   1816    773.
 Iteration    1 A^-1*A deviation from unit magnitude is 3.66D-15 for   1277.
 Iteration    1 A^-1*A deviation from orthogonality  is 2.83D-14 for   1305   1258.
 E= -821.221998393954    
 DIIS: error= 2.59D-02 at cycle   1 NSaved=   1.
 NSaved= 1 IEnMin= 1 EnMin= -821.221998393954     IErMin= 1 ErrMin= 2.59D-02
 ErrMax= 2.59D-02  0.00D+00 EMaxC= 1.00D-01 BMatC= 7.00D-01 BMatP= 7.00D-01
 IDIUse=3 WtCom= 7.41D-01 WtEn= 2.59D-01
 Coeff-Com:  0.100D+01
 Coeff-En:   0.100D+01
 Coeff:      0.100D+01
 Gap=     0.138 Goal=   None    Shift=    0.000
 GapD=    0.138 DampG=1.000 DampE=0.500 DampFc=0.5000 IDamp=-1.
 Damping current iteration by 5.00D-01
 RMSDP=8.92D-03 MaxDP=2.50D+00              OVMax= 2.46D-01

 Cycle   2  Pass 1  IDiag  1:
 RMSU=  4.31D-03    CP:  1.23D+00
 E= -821.490184512239     Delta-E=       -0.268186118285 Rises=F Damp=T
 DIIS: error= 5.11D-03 at cycle   2 NSaved=   2.
 NSaved= 2 IEnMin= 2 EnMin= -821.490184512239     IErMin= 2 ErrMin= 5.11D-03
 ErrMax= 5.11D-03  0.00D+00 EMaxC= 1.00D-01 BMatC= 4.00D-02 BMatP= 7.00D-01
 IDIUse=3 WtCom= 9.49D-01 WtEn= 5.11D-02
 Coeff-Com:  0.557D-01 0.944D+00
 Coeff-En:   0.122D+00 0.878D+00
 Coeff:      0.591D-01 0.941D+00
 Gap=     0.235 Goal=   None    Shift=    0.000
 RMSDP=2.28D-03 MaxDP=6.37D-01 DE=-2.68D-01 OVMax= 2.16D-01

 Cycle   3  Pass 1  IDiag  1:
 RMSU=  5.81D-04    CP:  1.11D+00  5.08D-01
 E= -821.802899162718     Delta-E=       -0.312714650479 Rises=F Damp=F
 DIIS: error= 4.58D-03 at cycle   3 NSaved=   3.
 NSaved= 3 IEnMin= 3 EnMin= -821.802899162718     IErMin= 3 ErrMin= 4.58D-03
 ErrMax= 4.58D-03  0.00D+00 EMaxC= 1.00D-01 BMatC= 3.41D-02 BMatP= 4.00D-02
 IDIUse=3 WtCom= 9.54D-01 WtEn= 4.58D-02
 Coeff-Com: -0.168D-01 0.477D+00 0.540D+00
 Coeff-En:   0.000D+00 0.000D+00 0.100D+01
 Coeff:     -0.161D-01 0.455D+00 0.561D+00
 Gap=     0.224 Goal=   None    Shift=    0.000
 RMSDP=9.59D-04 MaxDP=2.67D-01 DE=-3.13D-01 OVMax= 5.60D-02

 Cycle   4  Pass 1  IDiag  1:
 RMSU=  2.23D-04    CP:  1.16D+00  7.14D-01  8.30D-01
 E= -821.825100095555     Delta-E=       -0.022200932837 Rises=F Damp=F
 DIIS: error= 2.00D-03 at cycle   4 NSaved=   4.
 NSaved= 4 IEnMin= 4 EnMin= -821.825100095555     IErMin= 4 ErrMin= 2.00D-03
 ErrMax= 2.00D-03  0.00D+00 EMaxC= 1.00D-01 BMatC= 6.83D-03 BMatP= 3.41D-02
 IDIUse=3 WtCom= 9.80D-01 WtEn= 2.00D-02
 Coeff-Com: -0.179D-01 0.836D-01 0.324D+00 0.611D+00
 Coeff-En:   0.000D+00 0.000D+00 0.160D+00 0.840D+00
 Coeff:     -0.176D-01 0.819D-01 0.320D+00 0.615D+00
 Gap=     0.224 Goal=   None    Shift=    0.000
 RMSDP=3.18D-04 MaxDP=8.92D-02 DE=-2.22D-02 OVMax= 1.30D-02

 Cycle   5  Pass 1  IDiag  1:
 RMSU=  6.18D-05    CP:  1.14D+00  6.47D-01  8.98D-01  6.67D-01
 E= -821.830022124934     Delta-E=       -0.004922029378 Rises=F Damp=F
 DIIS: error= 4.28D-04 at cycle   5 NSaved=   5.
 NSaved= 5 IEnMin= 5 EnMin= -821.830022124934     IErMin= 5 ErrMin= 4.28D-04
 ErrMax= 4.28D-04  0.00D+00 EMaxC= 1.00D-01 BMatC= 1.90D-04 BMatP= 6.83D-03
 IDIUse=3 WtCom= 9.96D-01 WtEn= 4.28D-03
 Coeff-Com: -0.670D-02 0.174D-01 0.119D+00 0.268D+00 0.603D+00
 Coeff-En:   0.000D+00 0.000D+00 0.000D+00 0.000D+00 0.100D+01
 Coeff:     -0.667D-02 0.173D-01 0.118D+00 0.266D+00 0.605D+00
 Gap=     0.226 Goal=   None    Shift=    0.000
 RMSDP=5.64D-05 MaxDP=1.52D-02 DE=-4.92D-03 OVMax= 2.79D-03

 Cycle   6  Pass 1  IDiag  1:
 RMSU=  1.48D-05    CP:  1.15D+00  6.58D-01  8.95D-01  7.04D-01  7.07D-01
 E= -821.830183139762     Delta-E=       -0.000161014828 Rises=F Damp=F
 DIIS: error= 1.25D-04 at cycle   6 NSaved=   6.
 NSaved= 6 IEnMin= 6 EnMin= -821.830183139762     IErMin= 6 ErrMin= 1.25D-04
 ErrMax= 1.25D-04  0.00D+00 EMaxC= 1.00D-01 BMatC= 1.55D-05 BMatP= 1.90D-04
 IDIUse=3 WtCom= 9.99D-01 WtEn= 1.25D-03
 Coeff-Com: -0.180D-02 0.250D-02 0.341D-01 0.856D-01 0.288D+00 0.592D+00
 Coeff-En:   0.000D+00 0.000D+00 0.000D+00 0.000D+00 0.000D+00 0.100D+01
 Coeff:     -0.180D-02 0.250D-02 0.341D-01 0.855D-01 0.288D+00 0.592D+00
 Gap=     0.226 Goal=   None    Shift=    0.000
 RMSDP=1.13D-05 MaxDP=2.87D-03 DE=-1.61D-04 OVMax= 6.00D-04

 Cycle   7  Pass 1  IDiag  1:
 RMSU=  5.01D-06    CP:  1.15D+00  6.61D-01  8.96D-01  7.04D-01  7.22D-01
                    CP:  9.15D-01
 E= -821.830195272359     Delta-E=       -0.000012132597 Rises=F Damp=F
 DIIS: error= 3.07D-05 at cycle   7 NSaved=   7.
 NSaved= 7 IEnMin= 7 EnMin= -821.830195272359     IErMin= 7 ErrMin= 3.07D-05
 ErrMax= 3.07D-05  0.00D+00 EMaxC= 1.00D-01 BMatC= 1.46D-06 BMatP= 1.55D-05
 IDIUse=1 WtCom= 1.00D+00 WtEn= 0.00D+00
 Coeff-Com: -0.477D-03 0.156D-03 0.894D-02 0.254D-01 0.106D+00 0.306D+00
 Coeff-Com:  0.554D+00
 Coeff:     -0.477D-03 0.156D-03 0.894D-02 0.254D-01 0.106D+00 0.306D+00
 Coeff:      0.554D+00
 Gap=     0.226 Goal=   None    Shift=    0.000
 RMSDP=5.63D-06 MaxDP=1.36D-03 DE=-1.21D-05 OVMax= 2.67D-04

 Cycle   8  Pass 1  IDiag  1:
 RMSU=  1.69D-06    CP:  1.15D+00  6.60D-01  8.96D-01  7.04D-01  7.33D-01
                    CP:  9.14D-01  6.00D-01
 E= -821.830196367105     Delta-E=       -0.000001094746 Rises=F Damp=F
 DIIS: error= 1.28D-05 at cycle   8 NSaved=   8.
 NSaved= 8 IEnMin= 8 EnMin= -821.830196367105     IErMin= 8 ErrMin= 1.28D-05
 ErrMax= 1.28D-05  0.00D+00 EMaxC= 1.00D-01 BMatC= 1.84D-07 BMatP= 1.46D-06
 IDIUse=1 WtCom= 1.00D+00 WtEn= 0.00D+00
 Coeff-Com: -0.500D-04-0.184D-03 0.483D-03 0.336D-02 0.228D-01 0.918D-01
 Coeff-Com:  0.292D+00 0.590D+00
 Coeff:     -0.500D-04-0.184D-03 0.483D-03 0.336D-02 0.228D-01 0.918D-01
 Coeff:      0.292D+00 0.590D+00
 Gap=     0.226 Goal=   None    Shift=    0.000
 RMSDP=9.83D-07 MaxDP=1.03D-04 DE=-1.09D-06 OVMax= 1.15D-04

 Cycle   9  Pass 1  IDiag  1:
 RMSU=  7.36D-07    CP:  1.15D+00  6.60D-01  8.96D-01  7.05D-01  7.34D-01
                    CP:  9.20D-01  6.92D-01  8.45D-01
 E= -821.830196474334     Delta-E=       -0.000000107229 Rises=F Damp=F
 DIIS: error= 4.92D-06 at cycle   9 NSaved=   9.
 NSaved= 9 IEnMin= 9 EnMin= -821.830196474334     IErMin= 9 ErrMin= 4.92D-06
 ErrMax= 4.92D-06  0.00D+00 EMaxC= 1.00D-01 BMatC= 4.02D-08 BMatP= 1.84D-07
 IDIUse=1 WtCom= 1.00D+00 WtEn= 0.00D+00
 Coeff-Com:  0.472D-04-0.122D-03-0.132D-02-0.227D-02-0.435D-02 0.537D-03
 Coeff-Com:  0.714D-01 0.358D+00 0.578D+00
 Coeff:      0.472D-04-0.122D-03-0.132D-02-0.227D-02-0.435D-02 0.537D-03
 Coeff:      0.714D-01 0.358D+00 0.578D+00
 Gap=     0.226 Goal=   None    Shift=    0.000
 RMSDP=7.77D-07 MaxDP=1.96D-04 DE=-1.07D-07 OVMax= 3.38D-05

 Cycle  10  Pass 1  IDiag  1:
 RMSU=  1.32D-07    CP:  1.15D+00  6.60D-01  8.96D-01  7.05D-01  7.34D-01
                    CP:  9.31D-01  6.94D-01  9.00D-01  6.29D-01
 E= -821.830196506689     Delta-E=       -0.000000032355 Rises=F Damp=F
 DIIS: error= 5.50D-07 at cycle  10 NSaved=  10.
 NSaved=10 IEnMin=10 EnMin= -821.830196506689     IErMin=10 ErrMin= 5.50D-07
 ErrMax= 5.50D-07  0.00D+00 EMaxC= 1.00D-01 BMatC= 5.77D-10 BMatP= 4.02D-08
 IDIUse=1 WtCom= 1.00D+00 WtEn= 0.00D+00
 Coeff-Com:  0.915D-05-0.187D-04-0.406D-03-0.667D-03-0.170D-02-0.288D-02
 Coeff-Com:  0.101D-01 0.752D-01 0.144D+00 0.776D+00
 Coeff:      0.915D-05-0.187D-04-0.406D-03-0.667D-03-0.170D-02-0.288D-02
 Coeff:      0.101D-01 0.752D-01 0.144D+00 0.776D+00
 Gap=     0.226 Goal=   None    Shift=    0.000
 RMSDP=5.47D-08 MaxDP=1.24D-05 DE=-3.24D-08 OVMax= 6.82D-06

 Cycle  11  Pass 1  IDiag  1:
 RMSU=  2.89D-08    CP:  1.15D+00  6.60D-01  8.96D-01  7.05D-01  7.35D-01
                    CP:  9.31D-01  6.95D-01  9.05D-01  6.45D-01  9.73D-01
 E= -821.830196507144     Delta-E=       -0.000000000455 Rises=F Damp=F
 DIIS: error= 3.04D-07 at cycle  11 NSaved=  11.
 NSaved=11 IEnMin=11 EnMin= -821.830196507144     IErMin=11 ErrMin= 3.04D-07
 ErrMax= 3.04D-07  0.00D+00 EMaxC= 1.00D-01 BMatC= 1.17D-10 BMatP= 5.77D-10
 IDIUse=1 WtCom= 1.00D+00 WtEn= 0.00D+00
 Coeff-Com: -0.364D-05 0.108D-04-0.929D-05 0.261D-04-0.125D-03-0.150D-02
 Coeff-Com: -0.618D-02-0.189D-01-0.207D-01 0.362D+00 0.686D+00
 Coeff:     -0.364D-05 0.108D-04-0.929D-05 0.261D-04-0.125D-03-0.150D-02
 Coeff:     -0.618D-02-0.189D-01-0.207D-01 0.362D+00 0.686D+00
 Gap=     0.226 Goal=   None    Shift=    0.000
 RMSDP=3.57D-08 MaxDP=9.12D-06 DE=-4.55D-10 OVMax= 2.32D-06

 Cycle  12  Pass 1  IDiag  1:
 RMSU=  9.83D-09    CP:  1.15D+00  6.60D-01  8.96D-01  7.05D-01  7.35D-01
                    CP:  9.31D-01  6.96D-01  9.07D-01  6.42D-01  1.04D+00
                    CP:  1.00D+00
 E= -821.830196507281     Delta-E=       -0.000000000137 Rises=F Damp=F
 DIIS: error= 2.56D-08 at cycle  12 NSaved=  12.
 NSaved=12 IEnMin=12 EnMin= -821.830196507281     IErMin=12 ErrMin= 2.56D-08
 ErrMax= 2.56D-08  0.00D+00 EMaxC= 1.00D-01 BMatC= 9.50D-13 BMatP= 1.17D-10
 IDIUse=1 WtCom= 1.00D+00 WtEn= 0.00D+00
 Coeff-Com: -0.762D-06 0.233D-05 0.859D-05 0.200D-04 0.272D-04-0.157D-03
 Coeff-Com: -0.153D-02-0.558D-02-0.789D-02 0.255D-01 0.106D+00 0.883D+00
 Coeff:     -0.762D-06 0.233D-05 0.859D-05 0.200D-04 0.272D-04-0.157D-03
 Coeff:     -0.153D-02-0.558D-02-0.789D-02 0.255D-01 0.106D+00 0.883D+00
 Gap=     0.226 Goal=   None    Shift=    0.000
 RMSDP=5.48D-09 MaxDP=1.35D-06 DE=-1.37D-10 OVMax= 5.26D-07

 Cycle  13  Pass 1  IDiag  1:
 RMSU=  1.54D-09    CP:  1.15D+00  6.60D-01  8.96D-01  7.05D-01  7.35D-01
                    CP:  9.31D-01  6.96D-01  9.07D-01  6.42D-01  1.05D+00
                    CP:  1.03D+00  1.04D+00
 E= -821.830196507291     Delta-E=       -0.000000000010 Rises=F Damp=F
 DIIS: error= 6.34D-09 at cycle  13 NSaved=  13.
 NSaved=13 IEnMin=13 EnMin= -821.830196507291     IErMin=13 ErrMin= 6.34D-09
 ErrMax= 6.34D-09  0.00D+00 EMaxC= 1.00D-01 BMatC= 3.94D-14 BMatP= 9.50D-13
 IDIUse=1 WtCom= 1.00D+00 WtEn= 0.00D+00
 Coeff-Com:  0.596D-07-0.124D-06 0.126D-05 0.159D-05 0.935D-05 0.352D-04
 Coeff-Com:  0.167D-04-0.161D-04-0.219D-03-0.109D-01-0.115D-01 0.173D+00
 Coeff-Com:  0.849D+00
 Coeff:      0.596D-07-0.124D-06 0.126D-05 0.159D-05 0.935D-05 0.352D-04
 Coeff:      0.167D-04-0.161D-04-0.219D-03-0.109D-01-0.115D-01 0.173D+00
 Coeff:      0.849D+00
 Gap=     0.226 Goal=   None    Shift=    0.000
 RMSDP=1.32D-09 MaxDP=3.44D-07 DE=-1.05D-11 OVMax= 7.55D-08

 Error on total polarization charges =  0.05476
 SCF Done:  E(RPBE1PBE) =  -821.830196507     A.U. after   13 cycles
            NFock= 13  Conv=0.13D-08     -V/T= 2.0053
 KE= 8.175375707226D+02 PE=-4.767314812076D+03 EE= 1.703249809099D+03
 SMD-CDS (non-electrostatic) energy       (kcal/mol) =      -0.04
 (included in total energy above)
 Leave Link  502 at Wed Apr  3 10:31:49 2024, MaxMem= 10737418240 cpu:            5841.1 elap:             148.1
 (Enter /lustre/home/acct-chenxiangyang/chenxiangyang-user1/software/g16/l601.exe)
 Copying SCF densities to generalized density rwf, IOpCl= 0 IROHF=0.

 **********************************************************************

            Population analysis using the SCF density.

 **********************************************************************

 Orbital symmetries:
       Occupied  (A) (B) (A) (B) (B) (A) (B) (A) (A) (B) (B) (A)
                 (A) (B) (B) (A) (A) (B) (A) (B) (A) (B) (A) (B)
                 (A) (B) (B) (A) (B) (A) (A) (B) (A) (A) (B) (B)
                 (A) (B) (A) (B) (A) (B) (A) (B) (A) (A) (B) (B)
                 (A) (B) (A) (B) (A) (A) (B) (B) (A) (B) (A) (B)
                 (A) (B) (A) (B) (B) (A) (A) (B) (A)
       Virtual   (B) (A) (A) (B) (B) (A) (A) (A) (B) (A) (B) (A)
                 (B) (B) (B) (A) (A) (B) (B) (A) (B) (A) (B) (A)
                 (B) (A) (A) (B) (B) (B) (A) (A) (A) (B) (B) (A)
                 (A) (B) (B) (A) (A) (B) (A) (B) (A) (B) (A) (A)
                 (A) (B) (A) (B) (B) (A) (B) (A) (B) (B) (B) (B)
                 (A) (A) (B) (A) (A) (B) (A) (B) (B) (A) (B) (A)
                 (B) (A) (A) (B) (A) (B) (A) (A) (B) (B) (A) (B)
                 (A) (B) (A) (B) (B) (A) (A) (B) (B) (A) (A) (B)
                 (B) (B) (A) (A) (A) (B) (B) (A) (B) (B) (A) (B)
                 (A) (A) (B) (A) (B) (B) (A) (A) (B) (A) (B) (A)
                 (A) (B) (B) (A) (A) (B) (B) (A) (B) (A) (B) (B)
                 (A) (A) (B) (A) (A) (B) (A) (B) (B) (A) (B) (A)
                 (B) (A) (B) (B) (A) (B) (A) (A) (B) (B) (A) (B)
                 (A) (B) (A) (B) (A) (B) (A) (A) (B) (A) (B) (A)
                 (B) (A) (B) (B) (A) (A) (B) (A) (B) (A) (A) (B)
                 (B) (A) (B) (A) (A) (B) (A) (B) (A) (A) (B) (B)
                 (B) (A) (A) (B) (B) (A) (A) (B) (A) (B) (B) (A)
                 (B) (A) (B) (A) (B) (A) (A) (B) (A) (B) (A) (B)
                 (B) (B) (A) (A) (B) (A) (A) (B) (A) (B) (B) (B)
                 (A) (B) (A) (A) (B) (B) (A) (B) (A) (B) (A) (B)
                 (A) (A) (B) (B) (A) (A) (A) (B) (A) (B) (B) (A)
                 (B) (B) (A) (A) (B) (A) (B) (A) (B) (A) (B) (B)
                 (A) (A) (B) (A) (B) (A) (A) (B) (B) (A) (B) (A)
                 (B) (B) (A) (B) (A) (A) (A) (A) (B) (B) (A) (B)
                 (B) (A) (A) (B) (A) (B) (A) (A) (B) (A) (B) (B)
                 (A) (B) (B) (A) (A) (A) (B) (B) (B) (A) (B) (A)
                 (B) (A) (A) (B) (A) (B) (B) (A) (B) (A) (A) (A)
                 (B) (A) (B) (A) (B) (B) (B) (A) (B) (B) (A) (A)
                 (B) (A) (B) (A) (A) (A) (B) (A) (B) (B) (A) (A)
                 (B) (A) (B) (B) (A) (B) (A) (B) (A) (A) (B) (B)
                 (B) (B) (A) (A) (B) (A) (B) (B) (A) (A) (B) (A)
                 (B) (B) (A) (B) (A) (B) (A) (A) (B) (B) (A) (A)
                 (B) (A) (B) (A) (B) (A) (B) (A) (B) (B) (A) (A)
                 (B) (B) (B) (A) (B) (A) (B) (A) (A) (A) (A) (B)
                 (B) (B) (A) (B) (B) (A) (A) (B) (A) (A) (A) (B)
                 (B) (A) (A) (B) (A) (A) (B) (B) (B) (A) (B) (A)
                 (B) (A) (B) (A) (A) (B) (B) (A) (B) (B) (B) (A)
                 (A) (A) (B) (A) (B) (B) (A) (B) (A) (A) (A) (B)
                 (B) (B) (A) (A) (B) (B) (A) (B) (A) (A) (A) (B)
                 (B) (A) (B) (A) (A) (B) (B) (A) (B) (A) (A) (A)
                 (B) (B) (A) (B) (B) (A) (B) (A) (B) (A) (B) (A)
                 (A) (A) (B) (B) (A) (B) (A) (B) (B) (B) (A) (A)
                 (A) (B) (B) (A) (B) (A) (A) (B) (B) (A) (B) (A)
                 (B) (A) (A) (B) (B) (B) (A) (A) (B) (B) (A) (B)
                 (A) (B) (A) (B) (A) (A) (B) (A) (B) (A) (B) (B)
                 (A) (B) (A) (A) (B) (B) (A) (A) (B) (A) (B) (A)
                 (B) (A) (B) (B) (A) (A) (B) (B) (A) (B) (A) (B)
                 (A) (B) (A) (A) (B) (B) (A) (B) (A) (B) (A) (A)
                 (B) (A) (A) (B) (B) (B) (A) (A) (B) (A) (A) (B)
                 (A) (B) (B) (A) (B) (B) (A) (A) (B) (A) (B) (B)
                 (A) (A) (B) (B) (A) (B) (A) (B) (A) (A) (B) (B)
                 (A) (A) (B) (B) (A) (A) (B) (A) (B) (A) (A) (B)
                 (B) (A) (B) (A) (B) (B) (A) (A) (B) (A) (B) (B)
                 (A) (B) (A) (B) (A) (B) (A) (A) (B) (A) (B) (B)
                 (A) (B) (A) (B) (A) (B) (A) (A) (B) (A) (B) (B)
                 (A) (B) (A) (B) (A) (B) (A) (A) (A) (B) (B) (B)
                 (A) (A) (B) (A) (B) (A) (B) (B) (A) (B) (A) (B)
                 (A) (A) (B) (A) (B) (A) (B) (A) (B) (A) (B) (B)
                 (A) (A) (B) (B) (B) (A) (A) (B) (B) (A) (A) (B)
                 (A) (A) (A) (B) (B) (A) (B) (A) (B) (B) (A) (A)
                 (B) (A) (A) (B) (B) (A) (B) (A) (B) (B) (A) (A)
                 (A) (B) (B) (A) (A) (B) (B) (A) (B) (A) (A) (B)
                 (B) (A) (B) (A) (B) (A) (B) (A) (B) (A) (B) (A)
                 (B) (A) (B) (A) (B) (A) (B) (A) (B) (A) (A) (B)
                 (B) (A) (A) (B) (B) (A) (B) (A) (B) (A) (B) (B)
                 (A) (B) (A) (A) (B) (B) (A) (A) (A) (B) (A) (B)
                 (A) (B) (B) (A) (A) (B) (B) (A) (B) (A) (B) (A)
                 (B) (A) (B) (A) (B) (B) (A) (A) (B) (A) (B) (A)
                 (B) (B) (A) (A) (B) (B) (A) (B) (A)
 The electronic state is 1-A.
 Alpha  occ. eigenvalues --  -19.22202 -19.22202 -19.22201 -19.22200 -10.27495
 Alpha  occ. eigenvalues --  -10.27495 -10.27416 -10.27416 -10.19574 -10.19574
 Alpha  occ. eigenvalues --  -10.19562 -10.19562 -10.19369 -10.19369 -10.19203
 Alpha  occ. eigenvalues --  -10.19203  -6.86489  -6.86464  -1.07478  -1.07350
 Alpha  occ. eigenvalues --   -1.01618  -1.01540  -0.81950  -0.81808  -0.76603
 Alpha  occ. eigenvalues --   -0.76554  -0.71727  -0.71717  -0.69973  -0.69973
 Alpha  occ. eigenvalues --   -0.63537  -0.63043  -0.56283  -0.55275  -0.54690
 Alpha  occ. eigenvalues --   -0.53642  -0.48371  -0.47914  -0.47702  -0.47669
 Alpha  occ. eigenvalues --   -0.47207  -0.46299  -0.46238  -0.46230  -0.42950
 Alpha  occ. eigenvalues --   -0.40842  -0.40722  -0.40707  -0.40350  -0.40207
 Alpha  occ. eigenvalues --   -0.39663  -0.39294  -0.38510  -0.38232  -0.38143
 Alpha  occ. eigenvalues --   -0.38065  -0.36919  -0.36780  -0.36614  -0.36451
 Alpha  occ. eigenvalues --   -0.35115  -0.34875  -0.34414  -0.32427  -0.31491
 Alpha  occ. eigenvalues --   -0.31162  -0.30786  -0.27680  -0.27571
 Alpha virt. eigenvalues --   -0.04975   0.00038   0.04789   0.05657   0.08590
 Alpha virt. eigenvalues --    0.09210   0.09468   0.09723   0.09951   0.10089
 Alpha virt. eigenvalues --    0.10929   0.11137   0.11161   0.12003   0.12315
 Alpha virt. eigenvalues --    0.12599   0.12941   0.13413   0.13748   0.14039
 Alpha virt. eigenvalues --    0.14244   0.14687   0.15145   0.16208   0.16313
 Alpha virt. eigenvalues --    0.16644   0.16914   0.17155   0.17523   0.18511
 Alpha virt. eigenvalues --    0.18512   0.19221   0.19377   0.19446   0.19552
 Alpha virt. eigenvalues --    0.19661   0.19978   0.20645   0.20845   0.21288
 Alpha virt. eigenvalues --    0.22806   0.22994   0.23251   0.24118   0.24121
 Alpha virt. eigenvalues --    0.25294   0.25971   0.27077   0.27829   0.28222
 Alpha virt. eigenvalues --    0.28821   0.29038   0.29441   0.29914   0.30985
 Alpha virt. eigenvalues --    0.30991   0.31353   0.31774   0.33090   0.33429
 Alpha virt. eigenvalues --    0.33666   0.34362   0.34668   0.34998   0.35207
 Alpha virt. eigenvalues --    0.36036   0.37679   0.37995   0.38553   0.39081
 Alpha virt. eigenvalues --    0.39410   0.39545   0.40219   0.40727   0.41561
 Alpha virt. eigenvalues --    0.41723   0.42333   0.42498   0.42577   0.43508
 Alpha virt. eigenvalues --    0.44090   0.44432   0.45034   0.45307   0.45650
 Alpha virt. eigenvalues --    0.45747   0.46214   0.46288   0.46393   0.47020
 Alpha virt. eigenvalues --    0.47206   0.47340   0.48075   0.48221   0.48401
 Alpha virt. eigenvalues --    0.48404   0.48817   0.48968   0.49170   0.50652
 Alpha virt. eigenvalues --    0.51358   0.51555   0.51690   0.52421   0.52915
 Alpha virt. eigenvalues --    0.53312   0.53349   0.53957   0.54372   0.55377
 Alpha virt. eigenvalues --    0.55966   0.56789   0.57298   0.57899   0.59116
 Alpha virt. eigenvalues --    0.59851   0.60218   0.61147   0.61680   0.61789
 Alpha virt. eigenvalues --    0.62292   0.63594   0.64204   0.65626   0.66214
 Alpha virt. eigenvalues --    0.66247   0.66414   0.66894   0.67875   0.70072
 Alpha virt. eigenvalues --    0.70587   0.71577   0.71639   0.73723   0.75035
 Alpha virt. eigenvalues --    0.75404   0.75884   0.75915   0.76318   0.76843
 Alpha virt. eigenvalues --    0.77898   0.78176   0.78422   0.79130   0.79574
 Alpha virt. eigenvalues --    0.80041   0.82626   0.82916   0.83536   0.83658
 Alpha virt. eigenvalues --    0.83831   0.84873   0.85212   0.86073   0.86615
 Alpha virt. eigenvalues --    0.87643   0.88090   0.88537   0.89070   0.89785
 Alpha virt. eigenvalues --    0.90401   0.91068   0.91923   0.92361   0.93276
 Alpha virt. eigenvalues --    0.93632   0.94206   0.95303   0.95534   0.96451
 Alpha virt. eigenvalues --    0.97369   0.98910   0.99165   1.00245   1.00998
 Alpha virt. eigenvalues --    1.01338   1.01705   1.01777   1.02873   1.03067
 Alpha virt. eigenvalues --    1.03591   1.04184   1.05352   1.05851   1.07521
 Alpha virt. eigenvalues --    1.07813   1.08359   1.08752   1.09104   1.09758
 Alpha virt. eigenvalues --    1.10358   1.10689   1.11865   1.13111   1.13425
 Alpha virt. eigenvalues --    1.13437   1.14114   1.14151   1.14563   1.14804
 Alpha virt. eigenvalues --    1.15744   1.17141   1.18058   1.18535   1.19669
 Alpha virt. eigenvalues --    1.19820   1.19966   1.20684   1.21048   1.21436
 Alpha virt. eigenvalues --    1.21626   1.22062   1.23334   1.25623   1.25980
 Alpha virt. eigenvalues --    1.26499   1.27894   1.28653   1.28793   1.30046
 Alpha virt. eigenvalues --    1.31122   1.31448   1.31748   1.32490   1.33354
 Alpha virt. eigenvalues --    1.33618   1.34121   1.35267   1.35898   1.36300
 Alpha virt. eigenvalues --    1.36779   1.37180   1.38493   1.39215   1.39464
 Alpha virt. eigenvalues --    1.39956   1.40301   1.41166   1.41539   1.41744
 Alpha virt. eigenvalues --    1.43456   1.43988   1.44326   1.44643   1.44768
 Alpha virt. eigenvalues --    1.45212   1.47014   1.47509   1.47842   1.48111
 Alpha virt. eigenvalues --    1.48588   1.48689   1.48779   1.49162   1.50950
 Alpha virt. eigenvalues --    1.51288   1.51731   1.52511   1.53232   1.53600
 Alpha virt. eigenvalues --    1.54051   1.55170   1.55879   1.56058   1.56299
 Alpha virt. eigenvalues --    1.56967   1.57350   1.57646   1.58800   1.59703
 Alpha virt. eigenvalues --    1.60761   1.60774   1.61621   1.62408   1.62575
 Alpha virt. eigenvalues --    1.62674   1.62794   1.63776   1.64521   1.65855
 Alpha virt. eigenvalues --    1.65950   1.66794   1.67359   1.68545   1.68651
 Alpha virt. eigenvalues --    1.69161   1.69755   1.70443   1.71218   1.71765
 Alpha virt. eigenvalues --    1.72378   1.73589   1.74284   1.74505   1.75598
 Alpha virt. eigenvalues --    1.75958   1.76915   1.77748   1.78386   1.79450
 Alpha virt. eigenvalues --    1.81094   1.82658   1.83137   1.84229   1.84317
 Alpha virt. eigenvalues --    1.85951   1.86662   1.88998   1.90467   1.93037
 Alpha virt. eigenvalues --    1.94355   1.95571   1.95853   1.95867   1.98002
 Alpha virt. eigenvalues --    1.99629   2.00531   2.01744   2.03813   2.04264
 Alpha virt. eigenvalues --    2.04667   2.05178   2.06296   2.07842   2.08142
 Alpha virt. eigenvalues --    2.09461   2.10066   2.10542   2.10880   2.11420
 Alpha virt. eigenvalues --    2.12686   2.12875   2.13939   2.15666   2.17421
 Alpha virt. eigenvalues --    2.18243   2.18515   2.21484   2.23359   2.23830
 Alpha virt. eigenvalues --    2.25719   2.25882   2.28094   2.28204   2.28821
 Alpha virt. eigenvalues --    2.30526   2.31079   2.33092   2.34080   2.34854
 Alpha virt. eigenvalues --    2.36146   2.36261   2.36723   2.38257   2.38919
 Alpha virt. eigenvalues --    2.40652   2.42435   2.43722   2.43724   2.45863
 Alpha virt. eigenvalues --    2.47058   2.48349   2.49145   2.49409   2.51326
 Alpha virt. eigenvalues --    2.52756   2.53058   2.53491   2.53843   2.56188
 Alpha virt. eigenvalues --    2.56336   2.57216   2.57243   2.58451   2.58470
 Alpha virt. eigenvalues --    2.59137   2.60453   2.60522   2.61707   2.63495
 Alpha virt. eigenvalues --    2.65174   2.65938   2.66070   2.67941   2.69186
 Alpha virt. eigenvalues --    2.69269   2.71006   2.71337   2.71462   2.72931
 Alpha virt. eigenvalues --    2.73783   2.76709   2.77363   2.78058   2.78216
 Alpha virt. eigenvalues --    2.78869   2.79986   2.82323   2.82612   2.83819
 Alpha virt. eigenvalues --    2.84176   2.84460   2.84728   2.84730   2.85638
 Alpha virt. eigenvalues --    2.86668   2.87255   2.87457   2.87923   2.89073
 Alpha virt. eigenvalues --    2.89884   2.91542   2.91663   2.92318   2.92412
 Alpha virt. eigenvalues --    2.93037   2.93175   2.94985   2.95619   2.96283
 Alpha virt. eigenvalues --    2.97417   2.97959   2.98416   2.98812   2.99516
 Alpha virt. eigenvalues --    2.99850   3.00035   3.00512   3.01616   3.01897
 Alpha virt. eigenvalues --    3.02286   3.03859   3.04401   3.05018   3.05854
 Alpha virt. eigenvalues --    3.06177   3.06629   3.06712   3.07002   3.08152
 Alpha virt. eigenvalues --    3.09309   3.10563   3.11223   3.11283   3.12057
 Alpha virt. eigenvalues --    3.13032   3.13758   3.14390   3.15283   3.15537
 Alpha virt. eigenvalues --    3.15760   3.16207   3.16659   3.19543   3.20008
 Alpha virt. eigenvalues --    3.20513   3.20622   3.21306   3.21996   3.22686
 Alpha virt. eigenvalues --    3.25371   3.27321   3.27456   3.28128   3.28413
 Alpha virt. eigenvalues --    3.28962   3.29782   3.29864   3.30752   3.31275
 Alpha virt. eigenvalues --    3.32360   3.32515   3.33330   3.34332   3.34624
 Alpha virt. eigenvalues --    3.35737   3.36210   3.37803   3.38705   3.38973
 Alpha virt. eigenvalues --    3.39064   3.41270   3.41835   3.42148   3.43003
 Alpha virt. eigenvalues --    3.43306   3.43980   3.44162   3.44533   3.45275
 Alpha virt. eigenvalues --    3.45893   3.46041   3.48225   3.49371   3.50011
 Alpha virt. eigenvalues --    3.50602   3.51397   3.51607   3.52056   3.52185
 Alpha virt. eigenvalues --    3.52695   3.52964   3.53659   3.53686   3.54843
 Alpha virt. eigenvalues --    3.55204   3.55666   3.57411   3.57481   3.57993
 Alpha virt. eigenvalues --    3.58790   3.59296   3.59884   3.60389   3.60981
 Alpha virt. eigenvalues --    3.61820   3.62114   3.62745   3.62864   3.63428
 Alpha virt. eigenvalues --    3.63477   3.67718   3.67784   3.68069   3.69678
 Alpha virt. eigenvalues --    3.69853   3.70481   3.72665   3.72766   3.74103
 Alpha virt. eigenvalues --    3.74229   3.75637   3.76028   3.76844   3.77401
 Alpha virt. eigenvalues --    3.79536   3.80393   3.80995   3.81062   3.81468
 Alpha virt. eigenvalues --    3.81724   3.82356   3.82800   3.83901   3.84346
 Alpha virt. eigenvalues --    3.84904   3.84963   3.85163   3.85878   3.88111
 Alpha virt. eigenvalues --    3.88218   3.90903   3.91408   3.91529   3.92429
 Alpha virt. eigenvalues --    3.94523   3.96205   3.97919   3.98526   3.99160
 Alpha virt. eigenvalues --    3.99409   4.00630   4.01093   4.01625   4.02167
 Alpha virt. eigenvalues --    4.03033   4.03272   4.04284   4.04781   4.07028
 Alpha virt. eigenvalues --    4.08278   4.08279   4.08450   4.09002   4.09549
 Alpha virt. eigenvalues --    4.10053   4.11298   4.11690   4.12650   4.12909
 Alpha virt. eigenvalues --    4.13587   4.14945   4.15091   4.16212   4.16824
 Alpha virt. eigenvalues --    4.18337   4.18489   4.18722   4.19057   4.19479
 Alpha virt. eigenvalues --    4.19975   4.21501   4.22282   4.22715   4.22980
 Alpha virt. eigenvalues --    4.24751   4.24909   4.24982   4.25436   4.26138
 Alpha virt. eigenvalues --    4.26473   4.27151   4.27234   4.28094   4.28250
 Alpha virt. eigenvalues --    4.28978   4.30354   4.31001   4.31153   4.31209
 Alpha virt. eigenvalues --    4.31432   4.33134   4.33172   4.33272   4.33598
 Alpha virt. eigenvalues --    4.35747   4.36509   4.38024   4.38131   4.39471
 Alpha virt. eigenvalues --    4.40879   4.43418   4.43903   4.43905   4.44455
 Alpha virt. eigenvalues --    4.46974   4.47295   4.47681   4.48088   4.48740
 Alpha virt. eigenvalues --    4.49444   4.53363   4.53737   4.57281   4.58114
 Alpha virt. eigenvalues --    4.60040   4.60050   4.61153   4.61832   4.62826
 Alpha virt. eigenvalues --    4.63084   4.66329   4.66884   4.68132   4.69257
 Alpha virt. eigenvalues --    4.69883   4.70224   4.71955   4.72026   4.72483
 Alpha virt. eigenvalues --    4.73368   4.73925   4.74148   4.74459   4.74780
 Alpha virt. eigenvalues --    4.75319   4.75354   4.77618   4.77736   4.78265
 Alpha virt. eigenvalues --    4.78294   4.81511   4.81930   4.82096   4.82612
 Alpha virt. eigenvalues --    4.83455   4.84078   4.85964   4.86477   4.86556
 Alpha virt. eigenvalues --    4.86857   4.88334   4.89042   4.90386   4.90629
 Alpha virt. eigenvalues --    4.91050   4.92068   4.95487   4.96594   4.96769
 Alpha virt. eigenvalues --    4.96831   5.06956   5.07536   5.09109   5.09321
 Alpha virt. eigenvalues --    5.11993   5.12067   5.22080   5.22127   5.22851
 Alpha virt. eigenvalues --    5.22989   5.24543   5.24735   5.26578   5.27246
 Alpha virt. eigenvalues --    5.28166   5.28346   5.28625   5.29116   5.31944
 Alpha virt. eigenvalues --    5.32119   5.32232   5.32559   5.32989   5.34308
 Alpha virt. eigenvalues --    5.34547   5.34681   5.35299   5.36345   5.36447
 Alpha virt. eigenvalues --    5.37430   5.37655   5.37669   5.38091   5.38318
 Alpha virt. eigenvalues --    5.38700   5.38942   5.40090   5.40358   5.40602
 Alpha virt. eigenvalues --    5.40671   5.43603   5.44452   5.44773   5.45299
 Alpha virt. eigenvalues --    5.46280   5.46407   5.47975   5.48324   5.51092
 Alpha virt. eigenvalues --    5.51225   5.51503   5.53126   5.53309   5.54339
 Alpha virt. eigenvalues --    5.54542   5.54691   5.55535   5.56722   5.58962
 Alpha virt. eigenvalues --    5.59784   5.60103   5.62978   5.63133   5.63527
 Alpha virt. eigenvalues --    5.64300   5.64667   5.64901   5.65557   5.68406
 Alpha virt. eigenvalues --    5.69197   5.69865   5.71329   5.71995   5.72003
 Alpha virt. eigenvalues --    5.73638   5.74403   5.76479   5.76949   5.78580
 Alpha virt. eigenvalues --    5.78929   5.79428   5.79559   5.80089   5.82450
 Alpha virt. eigenvalues --    5.82518   5.83979   5.84798   5.85120   5.86019
 Alpha virt. eigenvalues --    5.87300   5.87544   5.87728   5.89525   5.90155
 Alpha virt. eigenvalues --    5.90736   5.91996   5.98989   6.01106   6.02351
 Alpha virt. eigenvalues --    6.03039   6.04465   6.07832   6.27943   6.28973
 Alpha virt. eigenvalues --    6.30900   6.31540   6.76373   6.77925   6.81298
 Alpha virt. eigenvalues --    6.83895   6.84527   6.86302   6.86388   6.88084
 Alpha virt. eigenvalues --    6.99797   7.02591   7.02613   7.05116   7.16312
 Alpha virt. eigenvalues --    7.18654   7.19190   7.22273   7.30634   7.30871
 Alpha virt. eigenvalues --    7.32456   7.37005  14.92952  15.22181  22.96118
 Alpha virt. eigenvalues --   22.98982  23.11940  23.19373  23.89111  23.90404
 Alpha virt. eigenvalues --   23.92582  23.92713  23.99145  24.00837  24.05749
 Alpha virt. eigenvalues --   24.06578  44.40883  44.45573  44.51273  44.53559
          Condensed to atoms (all electrons):
               1          2          3          4          5          6
     1  B    6.663544   0.477684   0.467780   0.002583  -0.018936   0.025435
     2  O    0.477684   7.881672  -0.011699   0.199766  -0.068618  -0.035629
     3  O    0.467780  -0.011699   7.884688  -0.073654   0.207069  -0.016205
     4  C    0.002583   0.199766  -0.073654   4.887952   0.313211   0.363751
     5  C   -0.018936  -0.068618   0.207069   0.313211   4.901502  -0.034650
     6  C    0.025435  -0.035629  -0.016205   0.363751  -0.034650   4.880609
     7  C   -0.016494  -0.037037   0.002509   0.304438  -0.031250  -0.067104
     8  C    0.020557  -0.019587  -0.042216  -0.034088   0.359575   0.008428
     9  C   -0.014816   0.002699  -0.037218  -0.028157   0.295571  -0.012521
    10  H   -0.004932   0.005018   0.000032  -0.033344  -0.000002   0.433183
    11  H    0.006339   0.003093   0.000118  -0.048318   0.011047   0.427588
    12  H   -0.024651  -0.010078   0.002072  -0.016893  -0.008522   0.395520
    13  H    0.000234   0.001602  -0.000345  -0.031855   0.009846  -0.009275
    14  H    0.003358   0.003727   0.000302  -0.030350  -0.005559  -0.005374
    15  H    0.003226   0.002342   0.000010  -0.038210  -0.007571   0.010104
    16  H   -0.004819   0.000045   0.004987  -0.000075  -0.032142   0.000074
    17  H    0.008461   0.000182   0.003500   0.010521  -0.047561  -0.000449
    18  H   -0.040249   0.000923  -0.009854  -0.009120  -0.019153  -0.000620
    19  H    0.003318  -0.000030   0.002234  -0.007606  -0.038036  -0.001181
    20  H    0.000554  -0.000337   0.001751   0.009889  -0.032099   0.000493
    21  H    0.002919   0.000239   0.003790  -0.006172  -0.030080  -0.000738
    22  B   -2.475127  -0.023701  -0.017437  -0.123118  -0.102013  -0.018132
    23  O   -0.023701   0.000528   0.000104  -0.000119  -0.000045  -0.000012
    24  O   -0.017437   0.000104   0.000382  -0.000125  -0.000252  -0.000229
    25  C   -0.123118  -0.000119  -0.000125   0.000047  -0.000290  -0.000040
    26  C   -0.102013  -0.000045  -0.000252  -0.000290   0.000211  -0.000099
    27  C   -0.018132  -0.000012  -0.000229  -0.000040  -0.000099  -0.000004
    28  C   -0.002887  -0.000000   0.000000   0.000001   0.000000   0.000000
    29  C   -0.009013  -0.000434  -0.000032  -0.000144  -0.000026   0.000008
    30  C    0.000014   0.000001   0.000002   0.000001   0.000002  -0.000000
    31  H   -0.003858  -0.000000   0.000001  -0.000001  -0.000000  -0.000000
    32  H   -0.000606   0.000000  -0.000006  -0.000003   0.000000  -0.000000
    33  H    0.017950   0.000020   0.000405   0.000075   0.000001   0.000008
    34  H   -0.002420  -0.000000  -0.000000  -0.000001  -0.000001  -0.000000
    35  H    0.000943  -0.000000  -0.000000   0.000000   0.000000   0.000000
    36  H    0.001245   0.000000   0.000000   0.000001   0.000000  -0.000000
    37  H   -0.004627   0.000006  -0.000000  -0.000004  -0.000001   0.000001
    38  H   -0.002348  -0.000010   0.000000  -0.000004  -0.000006  -0.000008
    39  H    0.035561   0.001382   0.000016  -0.000002   0.000146   0.000056
    40  H    0.001210   0.000000  -0.000000   0.000000   0.000001   0.000000
    41  H   -0.002711  -0.000000  -0.000000  -0.000001  -0.000001  -0.000000
    42  H    0.000822  -0.000000  -0.000000   0.000000   0.000000   0.000000
               7          8          9         10         11         12
     1  B   -0.016494   0.020557  -0.014816  -0.004932   0.006339  -0.024651
     2  O   -0.037037  -0.019587   0.002699   0.005018   0.003093  -0.010078
     3  O    0.002509  -0.042216  -0.037218   0.000032   0.000118   0.002072
     4  C    0.304438  -0.034088  -0.028157  -0.033344  -0.048318  -0.016893
     5  C   -0.031250   0.359575   0.295571  -0.000002   0.011047  -0.008522
     6  C   -0.067104   0.008428  -0.012521   0.433183   0.427588   0.395520
     7  C    4.940337  -0.011320   0.012179  -0.005549  -0.010229   0.013401
     8  C   -0.011320   4.887685  -0.068324   0.000221  -0.000463  -0.000459
     9  C    0.012179  -0.068324   4.943360  -0.003060  -0.000292   0.002904
    10  H   -0.005549   0.000221  -0.003060   0.548300  -0.014926  -0.015709
    11  H   -0.010229  -0.000463  -0.000292  -0.014926   0.545064  -0.018682
    12  H    0.013401  -0.000459   0.002904  -0.015709  -0.018682   0.569907
    13  H    0.411324   0.000494  -0.000213   0.000313   0.003697  -0.000612
    14  H    0.420627  -0.000732  -0.002997   0.000385   0.000189   0.000102
    15  H    0.413734  -0.001366  -0.001641  -0.000215  -0.000103  -0.000390
    16  H   -0.002682   0.431747  -0.005530   0.000067  -0.000031   0.000024
    17  H   -0.000171   0.429494  -0.009848  -0.000031   0.000020  -0.000067
    18  H    0.002308   0.390613   0.013661   0.000034  -0.000081   0.000242
    19  H   -0.001459   0.010122   0.413433  -0.004458   0.000168   0.000620
    20  H   -0.000250  -0.009906   0.411499   0.000236   0.000042  -0.000410
    21  H   -0.002903  -0.005709   0.421193   0.000363  -0.000104  -0.000027
    22  B   -0.002887  -0.009013   0.000014  -0.003858  -0.000606   0.017950
    23  O   -0.000000  -0.000434   0.000001  -0.000000   0.000000   0.000020
    24  O    0.000000  -0.000032   0.000002   0.000001  -0.000006   0.000405
    25  C    0.000001  -0.000144   0.000001  -0.000001  -0.000003   0.000075
    26  C    0.000000  -0.000026   0.000002  -0.000000   0.000000   0.000001
    27  C    0.000000   0.000008  -0.000000  -0.000000  -0.000000   0.000008
    28  C    0.000000  -0.000001   0.000000  -0.000000  -0.000000   0.000000
    29  C   -0.000001  -0.000002   0.000001   0.000001  -0.000011   0.000011
    30  C    0.000000   0.000001   0.000000  -0.000000  -0.000000  -0.000000
    31  H   -0.000000   0.000001  -0.000000   0.000000   0.000000  -0.000000
    32  H   -0.000000  -0.000011  -0.000000   0.000000  -0.000000  -0.000000
    33  H    0.000000   0.000011  -0.000000  -0.000000  -0.000000  -0.000005
    34  H   -0.000000  -0.000001  -0.000000   0.000000  -0.000000   0.000000
    35  H   -0.000000   0.000000  -0.000000  -0.000000   0.000000  -0.000000
    36  H    0.000000  -0.000000   0.000000  -0.000000   0.000000   0.000000
    37  H   -0.000000   0.000000  -0.000000   0.000000   0.000000  -0.000001
    38  H   -0.000000  -0.000000  -0.000000   0.000000   0.000000   0.000012
    39  H    0.000001   0.000034  -0.000000   0.000000   0.000022  -0.000079
    40  H    0.000000  -0.000000   0.000000  -0.000000  -0.000000   0.000000
    41  H   -0.000000  -0.000000  -0.000000   0.000000  -0.000000   0.000000
    42  H   -0.000000   0.000000  -0.000000   0.000000   0.000000   0.000000
              13         14         15         16         17         18
     1  B    0.000234   0.003358   0.003226  -0.004819   0.008461  -0.040249
     2  O    0.001602   0.003727   0.002342   0.000045   0.000182   0.000923
     3  O   -0.000345   0.000302   0.000010   0.004987   0.003500  -0.009854
     4  C   -0.031855  -0.030350  -0.038210  -0.000075   0.010521  -0.009120
     5  C    0.009846  -0.005559  -0.007571  -0.032142  -0.047561  -0.019153
     6  C   -0.009275  -0.005374   0.010104   0.000074  -0.000449  -0.000620
     7  C    0.411324   0.420627   0.413734  -0.002682  -0.000171   0.002308
     8  C    0.000494  -0.000732  -0.001366   0.431747   0.429494   0.390613
     9  C   -0.000213  -0.002997  -0.001641  -0.005530  -0.009848   0.013661
    10  H    0.000313   0.000385  -0.000215   0.000067  -0.000031   0.000034
    11  H    0.003697   0.000189  -0.000103  -0.000031   0.000020  -0.000081
    12  H   -0.000612   0.000102  -0.000390   0.000024  -0.000067   0.000242
    13  H    0.555980  -0.014245  -0.019121   0.000230   0.000040  -0.000459
    14  H   -0.014245   0.544506  -0.012782   0.000262  -0.000113   0.000030
    15  H   -0.019121  -0.012782   0.562246  -0.005003   0.000192   0.000585
    16  H    0.000230   0.000262  -0.005003   0.548257  -0.015302  -0.015205
    17  H    0.000040  -0.000113   0.000192  -0.015302   0.539928  -0.018623
    18  H   -0.000459   0.000030   0.000585  -0.015205  -0.018623   0.579168
    19  H   -0.000092   0.000398   0.000083  -0.000214  -0.000110  -0.000399
    20  H    0.000048   0.000137  -0.000092   0.000283   0.003605  -0.000697
    21  H    0.000158  -0.003080   0.000334   0.000482   0.000200   0.000083
    22  B   -0.002420   0.000943   0.001245  -0.004627  -0.002348   0.035561
    23  O   -0.000000  -0.000000   0.000000   0.000006  -0.000010   0.001382
    24  O   -0.000000  -0.000000   0.000000  -0.000000   0.000000   0.000016
    25  C   -0.000001   0.000000   0.000001  -0.000004  -0.000004  -0.000002
    26  C   -0.000001   0.000000   0.000000  -0.000001  -0.000006   0.000146
    27  C   -0.000000   0.000000  -0.000000   0.000001  -0.000008   0.000056
    28  C   -0.000000  -0.000000   0.000000  -0.000000  -0.000000   0.000001
    29  C   -0.000001   0.000000  -0.000000   0.000000  -0.000000   0.000034
    30  C   -0.000000  -0.000000   0.000000  -0.000000  -0.000000  -0.000000
    31  H    0.000000  -0.000000  -0.000000   0.000000   0.000000   0.000000
    32  H   -0.000000   0.000000   0.000000   0.000000   0.000000   0.000022
    33  H    0.000000  -0.000000   0.000000  -0.000001   0.000012  -0.000079
    34  H   -0.000000   0.000000  -0.000000   0.000000  -0.000000   0.000003
    35  H    0.000000   0.000000   0.000000  -0.000000   0.000000  -0.000000
    36  H   -0.000000   0.000000   0.000000  -0.000000   0.000000  -0.000001
    37  H    0.000000  -0.000000  -0.000000   0.000000   0.000000  -0.000000
    38  H   -0.000000   0.000000   0.000000   0.000000  -0.000000   0.000000
    39  H    0.000003  -0.000000  -0.000001  -0.000000   0.000000  -0.000054
    40  H   -0.000000  -0.000000  -0.000000  -0.000000  -0.000000  -0.000000
    41  H   -0.000000   0.000000  -0.000000   0.000000  -0.000000   0.000000
    42  H    0.000000   0.000000  -0.000000  -0.000000  -0.000000  -0.000000
              19         20         21         22         23         24
     1  B    0.003318   0.000554   0.002919  -2.475127  -0.023701  -0.017437
     2  O   -0.000030  -0.000337   0.000239  -0.023701   0.000528   0.000104
     3  O    0.002234   0.001751   0.003790  -0.017437   0.000104   0.000382
     4  C   -0.007606   0.009889  -0.006172  -0.123118  -0.000119  -0.000125
     5  C   -0.038036  -0.032099  -0.030080  -0.102013  -0.000045  -0.000252
     6  C   -0.001181   0.000493  -0.000738  -0.018132  -0.000012  -0.000229
     7  C   -0.001459  -0.000250  -0.002903  -0.002887  -0.000000   0.000000
     8  C    0.010122  -0.009906  -0.005709  -0.009013  -0.000434  -0.000032
     9  C    0.413433   0.411499   0.421193   0.000014   0.000001   0.000002
    10  H   -0.004458   0.000236   0.000363  -0.003858  -0.000000   0.000001
    11  H    0.000168   0.000042  -0.000104  -0.000606   0.000000  -0.000006
    12  H    0.000620  -0.000410  -0.000027   0.017950   0.000020   0.000405
    13  H   -0.000092   0.000048   0.000158  -0.002420  -0.000000  -0.000000
    14  H    0.000398   0.000137  -0.003080   0.000943  -0.000000  -0.000000
    15  H    0.000083  -0.000092   0.000334   0.001245   0.000000   0.000000
    16  H   -0.000214   0.000283   0.000482  -0.004627   0.000006  -0.000000
    17  H   -0.000110   0.003605   0.000200  -0.002348  -0.000010   0.000000
    18  H   -0.000399  -0.000697   0.000083   0.035561   0.001382   0.000016
    19  H    0.560668  -0.018675  -0.012957   0.001210   0.000000  -0.000000
    20  H   -0.018675   0.555506  -0.014283  -0.002711  -0.000000  -0.000000
    21  H   -0.012957  -0.014283   0.545891   0.000822  -0.000000  -0.000000
    22  B    0.001210  -0.002711   0.000822   6.663544   0.477684   0.467780
    23  O    0.000000  -0.000000  -0.000000   0.477684   7.881672  -0.011699
    24  O   -0.000000  -0.000000  -0.000000   0.467780  -0.011699   7.884688
    25  C    0.000000  -0.000001   0.000000   0.002583   0.199766  -0.073654
    26  C    0.000001  -0.000001   0.000000  -0.018936  -0.068618   0.207069
    27  C    0.000000  -0.000000   0.000000   0.025435  -0.035629  -0.016205
    28  C    0.000000  -0.000000  -0.000000  -0.016494  -0.037037   0.002509
    29  C   -0.000000  -0.000000   0.000000   0.020557  -0.019587  -0.042216
    30  C    0.000000  -0.000000  -0.000000  -0.014816   0.002699  -0.037218
    31  H   -0.000000   0.000000   0.000000  -0.004932   0.005018   0.000032
    32  H   -0.000000  -0.000000   0.000000   0.006339   0.003093   0.000118
    33  H    0.000000   0.000000   0.000000  -0.024651  -0.010078   0.002072
    34  H   -0.000000  -0.000000   0.000000   0.000234   0.001602  -0.000345
    35  H   -0.000000   0.000000   0.000000   0.003358   0.003727   0.000302
    36  H   -0.000000  -0.000000  -0.000000   0.003226   0.002342   0.000010
    37  H   -0.000000   0.000000  -0.000000  -0.004819   0.000045   0.004987
    38  H   -0.000000  -0.000000  -0.000000   0.008461   0.000182   0.003500
    39  H   -0.000000   0.000000  -0.000000  -0.040249   0.000923  -0.009854
    40  H    0.000000  -0.000000   0.000000   0.003318  -0.000030   0.002234
    41  H   -0.000000  -0.000000   0.000000   0.000554  -0.000337   0.001751
    42  H    0.000000   0.000000   0.000000   0.002919   0.000239   0.003790
              25         26         27         28         29         30
     1  B   -0.123118  -0.102013  -0.018132  -0.002887  -0.009013   0.000014
     2  O   -0.000119  -0.000045  -0.000012  -0.000000  -0.000434   0.000001
     3  O   -0.000125  -0.000252  -0.000229   0.000000  -0.000032   0.000002
     4  C    0.000047  -0.000290  -0.000040   0.000001  -0.000144   0.000001
     5  C   -0.000290   0.000211  -0.000099   0.000000  -0.000026   0.000002
     6  C   -0.000040  -0.000099  -0.000004   0.000000   0.000008  -0.000000
     7  C    0.000001   0.000000   0.000000   0.000000  -0.000001   0.000000
     8  C   -0.000144  -0.000026   0.000008  -0.000001  -0.000002   0.000001
     9  C    0.000001   0.000002  -0.000000   0.000000   0.000001   0.000000
    10  H   -0.000001  -0.000000  -0.000000  -0.000000   0.000001  -0.000000
    11  H   -0.000003   0.000000  -0.000000  -0.000000  -0.000011  -0.000000
    12  H    0.000075   0.000001   0.000008   0.000000   0.000011  -0.000000
    13  H   -0.000001  -0.000001  -0.000000  -0.000000  -0.000001  -0.000000
    14  H    0.000000   0.000000   0.000000  -0.000000   0.000000  -0.000000
    15  H    0.000001   0.000000  -0.000000   0.000000  -0.000000   0.000000
    16  H   -0.000004  -0.000001   0.000001  -0.000000   0.000000  -0.000000
    17  H   -0.000004  -0.000006  -0.000008  -0.000000  -0.000000  -0.000000
    18  H   -0.000002   0.000146   0.000056   0.000001   0.000034  -0.000000
    19  H    0.000000   0.000001   0.000000   0.000000  -0.000000   0.000000
    20  H   -0.000001  -0.000001  -0.000000  -0.000000  -0.000000  -0.000000
    21  H    0.000000   0.000000   0.000000  -0.000000   0.000000  -0.000000
    22  B    0.002583  -0.018936   0.025435  -0.016494   0.020557  -0.014816
    23  O    0.199766  -0.068618  -0.035629  -0.037037  -0.019587   0.002699
    24  O   -0.073654   0.207069  -0.016205   0.002509  -0.042216  -0.037218
    25  C    4.887952   0.313211   0.363751   0.304438  -0.034088  -0.028157
    26  C    0.313211   4.901502  -0.034650  -0.031250   0.359575   0.295571
    27  C    0.363751  -0.034650   4.880609  -0.067104   0.008428  -0.012521
    28  C    0.304438  -0.031250  -0.067104   4.940337  -0.011320   0.012179
    29  C   -0.034088   0.359575   0.008428  -0.011320   4.887685  -0.068324
    30  C   -0.028157   0.295571  -0.012521   0.012179  -0.068324   4.943360
    31  H   -0.033344  -0.000002   0.433183  -0.005549   0.000221  -0.003060
    32  H   -0.048318   0.011047   0.427588  -0.010229  -0.000463  -0.000292
    33  H   -0.016893  -0.008522   0.395520   0.013401  -0.000459   0.002904
    34  H   -0.031855   0.009846  -0.009275   0.411324   0.000494  -0.000213
    35  H   -0.030350  -0.005559  -0.005374   0.420627  -0.000732  -0.002997
    36  H   -0.038210  -0.007571   0.010104   0.413734  -0.001366  -0.001641
    37  H   -0.000075  -0.032142   0.000074  -0.002682   0.431747  -0.005530
    38  H    0.010521  -0.047561  -0.000449  -0.000171   0.429494  -0.009848
    39  H   -0.009120  -0.019153  -0.000620   0.002308   0.390613   0.013661
    40  H   -0.007606  -0.038036  -0.001181  -0.001459   0.010122   0.413433
    41  H    0.009889  -0.032099   0.000493  -0.000250  -0.009906   0.411499
    42  H   -0.006172  -0.030080  -0.000738  -0.002903  -0.005709   0.421193
              31         32         33         34         35         36
     1  B   -0.003858  -0.000606   0.017950  -0.002420   0.000943   0.001245
     2  O   -0.000000   0.000000   0.000020  -0.000000  -0.000000   0.000000
     3  O    0.000001  -0.000006   0.000405  -0.000000  -0.000000   0.000000
     4  C   -0.000001  -0.000003   0.000075  -0.000001   0.000000   0.000001
     5  C   -0.000000   0.000000   0.000001  -0.000001   0.000000   0.000000
     6  C   -0.000000  -0.000000   0.000008  -0.000000   0.000000  -0.000000
     7  C   -0.000000  -0.000000   0.000000  -0.000000  -0.000000   0.000000
     8  C    0.000001  -0.000011   0.000011  -0.000001   0.000000  -0.000000
     9  C   -0.000000  -0.000000  -0.000000  -0.000000  -0.000000   0.000000
    10  H    0.000000   0.000000  -0.000000   0.000000  -0.000000  -0.000000
    11  H    0.000000  -0.000000  -0.000000  -0.000000   0.000000   0.000000
    12  H   -0.000000  -0.000000  -0.000005   0.000000  -0.000000   0.000000
    13  H    0.000000  -0.000000   0.000000  -0.000000   0.000000  -0.000000
    14  H   -0.000000   0.000000  -0.000000   0.000000   0.000000   0.000000
    15  H   -0.000000   0.000000   0.000000  -0.000000   0.000000   0.000000
    16  H    0.000000   0.000000  -0.000001   0.000000  -0.000000  -0.000000
    17  H    0.000000   0.000000   0.000012  -0.000000   0.000000   0.000000
    18  H    0.000000   0.000022  -0.000079   0.000003  -0.000000  -0.000001
    19  H   -0.000000  -0.000000   0.000000  -0.000000  -0.000000  -0.000000
    20  H    0.000000  -0.000000   0.000000  -0.000000   0.000000  -0.000000
    21  H    0.000000   0.000000   0.000000   0.000000   0.000000  -0.000000
    22  B   -0.004932   0.006339  -0.024651   0.000234   0.003358   0.003226
    23  O    0.005018   0.003093  -0.010078   0.001602   0.003727   0.002342
    24  O    0.000032   0.000118   0.002072  -0.000345   0.000302   0.000010
    25  C   -0.033344  -0.048318  -0.016893  -0.031855  -0.030350  -0.038210
    26  C   -0.000002   0.011047  -0.008522   0.009846  -0.005559  -0.007571
    27  C    0.433183   0.427588   0.395520  -0.009275  -0.005374   0.010104
    28  C   -0.005549  -0.010229   0.013401   0.411324   0.420627   0.413734
    29  C    0.000221  -0.000463  -0.000459   0.000494  -0.000732  -0.001366
    30  C   -0.003060  -0.000292   0.002904  -0.000213  -0.002997  -0.001641
    31  H    0.548300  -0.014926  -0.015709   0.000313   0.000385  -0.000215
    32  H   -0.014926   0.545064  -0.018682   0.003697   0.000189  -0.000103
    33  H   -0.015709  -0.018682   0.569907  -0.000612   0.000102  -0.000390
    34  H    0.000313   0.003697  -0.000612   0.555980  -0.014245  -0.019121
    35  H    0.000385   0.000189   0.000102  -0.014245   0.544506  -0.012782
    36  H   -0.000215  -0.000103  -0.000390  -0.019121  -0.012782   0.562246
    37  H    0.000067  -0.000031   0.000024   0.000230   0.000262  -0.005003
    38  H   -0.000031   0.000020  -0.000067   0.000040  -0.000113   0.000192
    39  H    0.000034  -0.000081   0.000242  -0.000459   0.000030   0.000585
    40  H   -0.004458   0.000168   0.000620  -0.000092   0.000398   0.000083
    41  H    0.000236   0.000042  -0.000410   0.000048   0.000137  -0.000092
    42  H    0.000363  -0.000104  -0.000027   0.000158  -0.003080   0.000334
              37         38         39         40         41         42
     1  B   -0.004627  -0.002348   0.035561   0.001210  -0.002711   0.000822
     2  O    0.000006  -0.000010   0.001382   0.000000  -0.000000  -0.000000
     3  O   -0.000000   0.000000   0.000016  -0.000000  -0.000000  -0.000000
     4  C   -0.000004  -0.000004  -0.000002   0.000000  -0.000001   0.000000
     5  C   -0.000001  -0.000006   0.000146   0.000001  -0.000001   0.000000
     6  C    0.000001  -0.000008   0.000056   0.000000  -0.000000   0.000000
     7  C   -0.000000  -0.000000   0.000001   0.000000  -0.000000  -0.000000
     8  C    0.000000  -0.000000   0.000034  -0.000000  -0.000000   0.000000
     9  C   -0.000000  -0.000000  -0.000000   0.000000  -0.000000  -0.000000
    10  H    0.000000   0.000000   0.000000  -0.000000   0.000000   0.000000
    11  H    0.000000   0.000000   0.000022  -0.000000  -0.000000   0.000000
    12  H   -0.000001   0.000012  -0.000079   0.000000   0.000000   0.000000
    13  H    0.000000  -0.000000   0.000003  -0.000000  -0.000000   0.000000
    14  H   -0.000000   0.000000  -0.000000  -0.000000   0.000000   0.000000
    15  H   -0.000000   0.000000  -0.000001  -0.000000  -0.000000  -0.000000
    16  H    0.000000   0.000000  -0.000000  -0.000000   0.000000  -0.000000
    17  H    0.000000  -0.000000   0.000000  -0.000000  -0.000000  -0.000000
    18  H   -0.000000   0.000000  -0.000054  -0.000000   0.000000  -0.000000
    19  H   -0.000000  -0.000000  -0.000000   0.000000  -0.000000   0.000000
    20  H    0.000000  -0.000000   0.000000  -0.000000  -0.000000   0.000000
    21  H   -0.000000  -0.000000  -0.000000   0.000000   0.000000   0.000000
    22  B   -0.004819   0.008461  -0.040249   0.003318   0.000554   0.002919
    23  O    0.000045   0.000182   0.000923  -0.000030  -0.000337   0.000239
    24  O    0.004987   0.003500  -0.009854   0.002234   0.001751   0.003790
    25  C   -0.000075   0.010521  -0.009120  -0.007606   0.009889  -0.006172
    26  C   -0.032142  -0.047561  -0.019153  -0.038036  -0.032099  -0.030080
    27  C    0.000074  -0.000449  -0.000620  -0.001181   0.000493  -0.000738
    28  C   -0.002682  -0.000171   0.002308  -0.001459  -0.000250  -0.002903
    29  C    0.431747   0.429494   0.390613   0.010122  -0.009906  -0.005709
    30  C   -0.005530  -0.009848   0.013661   0.413433   0.411499   0.421193
    31  H    0.000067  -0.000031   0.000034  -0.004458   0.000236   0.000363
    32  H   -0.000031   0.000020  -0.000081   0.000168   0.000042  -0.000104
    33  H    0.000024  -0.000067   0.000242   0.000620  -0.000410  -0.000027
    34  H    0.000230   0.000040  -0.000459  -0.000092   0.000048   0.000158
    35  H    0.000262  -0.000113   0.000030   0.000398   0.000137  -0.003080
    36  H   -0.005003   0.000192   0.000585   0.000083  -0.000092   0.000334
    37  H    0.548257  -0.015302  -0.015205  -0.000214   0.000283   0.000482
    38  H   -0.015302   0.539928  -0.018623  -0.000110   0.003605   0.000200
    39  H   -0.015205  -0.018623   0.579168  -0.000399  -0.000697   0.000083
    40  H   -0.000214  -0.000110  -0.000399   0.560668  -0.018675  -0.012957
    41  H    0.000283   0.003605  -0.000697  -0.018675   0.555506  -0.014283
    42  H    0.000482   0.000200   0.000083  -0.012957  -0.014283   0.545891
 Mulliken charges:
               1
     1  B    0.169159
     2  O   -0.373697
     3  O   -0.372477
     4  C    0.389458
     5  C    0.378731
     6  C   -0.342986
     7  C   -0.331522
     8  C   -0.335156
     9  C   -0.331902
    10  H    0.097934
    11  H    0.096467
    12  H    0.093309
    13  H    0.094672
    14  H    0.100266
    15  H    0.092393
    16  H    0.099171
    17  H    0.098493
    18  H    0.089727
    19  H    0.092963
    20  H    0.095417
    21  H    0.099580
    22  B    0.169159
    23  O   -0.373697
    24  O   -0.372477
    25  C    0.389458
    26  C    0.378731
    27  C   -0.342986
    28  C   -0.331522
    29  C   -0.335156
    30  C   -0.331902
    31  H    0.097934
    32  H    0.096467
    33  H    0.093309
    34  H    0.094672
    35  H    0.100266
    36  H    0.092393
    37  H    0.099171
    38  H    0.098493
    39  H    0.089727
    40  H    0.092963
    41  H    0.095417
    42  H    0.099580
 Sum of Mulliken charges =  -0.00000
 Mulliken charges with hydrogens summed into heavy atoms:
               1
     1  B    0.169159
     2  O   -0.373697
     3  O   -0.372477
     4  C    0.389458
     5  C    0.378731
     6  C   -0.055277
     7  C   -0.044191
     8  C   -0.047764
     9  C   -0.043942
    22  B    0.169159
    23  O   -0.373697
    24  O   -0.372477
    25  C    0.389458
    26  C    0.378731
    27  C   -0.055277
    28  C   -0.044191
    29  C   -0.047764
    30  C   -0.043942
 Electronic spatial extent (au):  <R**2>=           6058.0289
 Charge=             -0.0000 electrons
 Dipole moment (field-independent basis, Debye):
    X=              0.0000    Y=              0.0000    Z=              0.1746  Tot=              0.1746
 Quadrupole moment (field-independent basis, Debye-Ang):
   XX=           -109.2485   YY=            -82.6406   ZZ=           -119.8852
   XY=              1.1139   XZ=              0.0000   YZ=              0.0000
 Traceless Quadrupole moment (field-independent basis, Debye-Ang):
   XX=             -5.3237   YY=             21.2841   ZZ=            -15.9604
   XY=              1.1139   XZ=              0.0000   YZ=              0.0000
 Octapole moment (field-independent basis, Debye-Ang**2):
  XXX=             -0.0000  YYY=             -0.0000  ZZZ=              1.2768  XYY=              0.0000
  XXY=             -0.0000  XXZ=             -0.4795  XZZ=              0.0000  YZZ=              0.0000
  YYZ=              2.0469  XYZ=              5.3328
 Hexadecapole moment (field-independent basis, Debye-Ang**3):
 XXXX=          -1023.9341 YYYY=          -5856.9761 ZZZZ=           -787.7324 XXXY=              2.9091
 XXXZ=             -0.0000 YYYX=              6.4398 YYYZ=             -0.0000 ZZZX=              0.0000
 ZZZY=             -0.0000 XXYY=          -1208.6295 XXZZ=           -296.6934 YYZZ=          -1206.0336
 XXYZ=              0.0000 YYXZ=              0.0000 ZZXY=              0.4008
 N-N= 1.424697235748D+03 E-N=-4.767314811500D+03  KE= 8.175375707226D+02
 Symmetry A    KE= 4.099838938895D+02
 Symmetry B    KE= 4.075536768331D+02
 No NMR shielding tensors so no spin-rotation constants.
 Leave Link  601 at Wed Apr  3 10:31:50 2024, MaxMem= 10737418240 cpu:              36.5 elap:               1.0
 (Enter /lustre/home/acct-chenxiangyang/chenxiangyang-user1/software/g16/l9999.exe)
 1\1\GINC-CAS244\SP\RPBE1PBE\def2TZVPP\C12H24B2O4\CHENXIANGYANG-USER1\0
 3-Apr-2024\0\\#p pbe1pbe/def2TZVPP em=gd3bj scrf=(smd,solvent=dmso)\\T
 itle\\0,1\B,0,-0.643837,0.599895,-0.044146\O,0,-1.681644,0.76267,1.093
 409\O,0,-0.878192,1.618163,-1.175632\C,0,-2.578773,1.642827,0.401732\C
 ,0,-1.640599,2.543709,-0.402695\C,0,-3.478184,0.850569,-0.557365\C,0,-
 3.478184,2.435268,1.370289\C,0,-0.726896,3.325968,0.562716\C,0,-2.3804
 64,3.561892,-1.285432\H,0,-4.093917,1.528887,-1.110236\H,0,-4.098235,0
 .183974,0.004847\H,0,-2.869814,0.288239,-1.233483\H,0,-4.094296,1.7571
 63,1.92495\H,0,-4.097509,3.104083,0.812073\H,0,-2.866777,2.994214,2.04
 7242\H,0,-1.321836,3.97378,1.17385\H,0,-0.028308,3.908029,0.000767\H,0
 ,-0.195948,2.637211,1.188188\H,0,-3.024465,3.045377,-1.961555\H,0,-1.6
 66435,4.138284,-1.836998\H,0,-2.962019,4.215548,-0.666609\B,0,0.643837
 ,-0.599895,-0.044146\O,0,1.681644,-0.76267,1.093409\O,0,0.878192,-1.61
 8163,-1.175632\C,0,2.578773,-1.642827,0.401732\C,0,1.640599,-2.543709,
 -0.402695\C,0,3.478184,-0.850569,-0.557365\C,0,3.478184,-2.435268,1.37
 0289\C,0,0.726896,-3.325968,0.562716\C,0,2.380464,-3.561892,-1.285432\
 H,0,4.093917,-1.528887,-1.110236\H,0,4.098235,-0.183974,0.004847\H,0,2
 .869814,-0.288239,-1.233483\H,0,4.094296,-1.757163,1.92495\H,0,4.09750
 9,-3.104083,0.812073\H,0,2.866777,-2.994214,2.047242\H,0,1.321836,-3.9
 7378,1.17385\H,0,0.028308,-3.908029,0.000767\H,0,0.195948,-2.637211,1.
 188188\H,0,3.024465,-3.045377,-1.961555\H,0,1.666435,-4.138284,-1.8369
 98\H,0,2.962019,-4.215548,-0.666609\\Version=ES64L-G16RevA.03\State=1-
 A\HF=-821.8301965\RMSD=1.318e-09\Dipole=0.,0.,0.0686804\Quadrupole=5.1
 822552,6.6839174,-11.8661726,-9.8973221,0.,0.\PG=C02 [X(C12H24B2O4)]\\
 @


 WISDOM IS KNOWING WHAT TO DO,
 SKILL IS KNOWING HOW TO DO IT,
 AND VIRTUE IS NOT DOING IT.
 Job cpu time:       0 days  1 hours 40 minutes  7.6 seconds.
 Elapsed time:       0 days  0 hours  2 minutes 32.6 seconds.
 File lengths (MBytes):  RWF=    544 Int=      0 D2E=      0 Chk=     48 Scr=      1
 Normal termination of Gaussian 16 at Wed Apr  3 10:31:51 2024.
