 Entering Gaussian System, Link 0=g16
 Input=Cu-L-I_SP.gjf
 Output=Cu-L-I_SP.log
 Initial command:
 /lustre/home/acct-chenxiangyang/chenxiangyang-user1/software/g16/l1.exe "/lustre/home/acct-chenxiangyang/chenxiangyang-user1/software/tmp/Gau-3819217.inp" -scrdir="/lustre/home/acct-chenxiangyang/chenxiangyang-user1/software/tmp/"
 Entering Link 1 = /lustre/home/acct-chenxiangyang/chenxiangyang-user1/software/g16/l1.exe PID=   3819218.
  
 Copyright (c) 1988,1990,1992,1993,1995,1998,2003,2009,2016,
            Gaussian, Inc.  All Rights Reserved.
  
 This is part of the Gaussian(R) 16 program.  It is based on
 the Gaussian(R) 09 system (copyright 2009, Gaussian, Inc.),
 the Gaussian(R) 03 system (copyright 2003, Gaussian, Inc.),
 the Gaussian(R) 98 system (copyright 1998, Gaussian, Inc.),
 the Gaussian(R) 94 system (copyright 1995, Gaussian, Inc.),
 the Gaussian 92(TM) system (copyright 1992, Gaussian, Inc.),
 the Gaussian 90(TM) system (copyright 1990, Gaussian, Inc.),
 the Gaussian 88(TM) system (copyright 1988, Gaussian, Inc.),
 the Gaussian 86(TM) system (copyright 1986, Carnegie Mellon
 University), and the Gaussian 82(TM) system (copyright 1983,
 Carnegie Mellon University). Gaussian is a federally registered
 trademark of Gaussian, Inc.
  
 This software contains proprietary and confidential information,
 including trade secrets, belonging to Gaussian, Inc.
  
 This software is provided under written license and may be
 used, copied, transmitted, or stored only in accord with that
 written license.
  
 The following legend is applicable only to US Government
 contracts under FAR:
  
                    RESTRICTED RIGHTS LEGEND
  
 Use, reproduction and disclosure by the US Government is
 subject to restrictions as set forth in subparagraphs (a)
 and (c) of the Commercial Computer Software - Restricted
 Rights clause in FAR 52.227-19.
  
 Gaussian, Inc.
 340 Quinnipiac St., Bldg. 40, Wallingford CT 06492
  
  
 ---------------------------------------------------------------
 Warning -- This program may not be used in any manner that
 competes with the business of Gaussian, Inc. or will provide
 assistance to any competitor of Gaussian, Inc.  The licensee
 of this program is prohibited from giving any competitor of
 Gaussian, Inc. access to this program.  By using this program,
 the user acknowledges that Gaussian, Inc. is engaged in the
 business of creating and licensing software in the field of
 computational chemistry and represents and warrants to the
 licensee that it is not a competitor of Gaussian, Inc. and that
 it will not use this program in any manner prohibited above.
 ---------------------------------------------------------------
  

 Cite this work as:
 Gaussian 16, Revision A.03,
 M. J. Frisch, G. W. Trucks, H. B. Schlegel, G. E. Scuseria, 
 M. A. Robb, J. R. Cheeseman, G. Scalmani, V. Barone, 
 G. A. Petersson, H. Nakatsuji, X. Li, M. Caricato, A. V. Marenich, 
 J. Bloino, B. G. Janesko, R. Gomperts, B. Mennucci, H. P. Hratchian, 
 J. V. Ortiz, A. F. Izmaylov, J. L. Sonnenberg, D. Williams-Young, 
 F. Ding, F. Lipparini, F. Egidi, J. Goings, B. Peng, A. Petrone, 
 T. Henderson, D. Ranasinghe, V. G. Zakrzewski, J. Gao, N. Rega, 
 G. Zheng, W. Liang, M. Hada, M. Ehara, K. Toyota, R. Fukuda, 
 J. Hasegawa, M. Ishida, T. Nakajima, Y. Honda, O. Kitao, H. Nakai, 
 T. Vreven, K. Throssell, J. A. Montgomery, Jr., J. E. Peralta, 
 F. Ogliaro, M. J. Bearpark, J. J. Heyd, E. N. Brothers, K. N. Kudin, 
 V. N. Staroverov, T. A. Keith, R. Kobayashi, J. Normand, 
 K. Raghavachari, A. P. Rendell, J. C. Burant, S. S. Iyengar, 
 J. Tomasi, M. Cossi, J. M. Millam, M. Klene, C. Adamo, R. Cammi, 
 J. W. Ochterski, R. L. Martin, K. Morokuma, O. Farkas, 
 J. B. Foresman, and D. J. Fox, Gaussian, Inc., Wallingford CT, 2016.
 
 ******************************************
 Gaussian 16:  ES64L-G16RevA.03 25-Dec-2016
                 3-Apr-2024 
 ******************************************
 %nprocshared=40
 Will use up to   40 processors via shared memory.
 %chk=Cu-L-I_SP.chk
 %mem=80GB
 -----------------------------------------------------
 #p pbe1pbe/def2TZVPP em=gd3bj scrf=(smd,solvent=dmso)
 -----------------------------------------------------
 1/38=1,172=1/1;
 2/12=2,17=6,18=5,40=1/2;
 3/5=44,7=202,11=2,25=1,30=1,70=32201,72=21,74=-13,124=41/1,2,3;
 4//1;
 5/5=2,38=5,53=21/2;
 6/7=2,8=2,9=2,10=2,28=1/1;
 99/5=1,9=1/99;
 Leave Link    1 at Wed Apr  3 10:29:17 2024, MaxMem= 10737418240 cpu:               4.8 elap:               0.1
 (Enter /lustre/home/acct-chenxiangyang/chenxiangyang-user1/software/g16/l101.exe)
 -----
 Title
 -----
 Symbolic Z-matrix:
 Charge =  0 Multiplicity = 1
 C                     1.5486    2.13124  -3.3471 
 C                     0.53942   3.02782  -2.9965 
 C                    -0.0206    2.97112  -1.71907 
 C                     0.40013   2.00197  -0.78503 
 C                     1.41618   1.09541  -1.15341 
 C                     1.9894    1.17184  -2.43835 
 C                    -0.20047   2.10576   0.58825 
 C                     0.30834   3.1369    1.40489 
 C                    -0.22419   3.37783   2.67229 
 C                    -1.28922   2.60317   3.13079 
 C                    -1.8142    1.58383   2.33998 
 C                    -1.27287   1.3242    1.06501 
 P                     1.81361  -0.32533  -0.04698 
 P                    -1.80517  -0.17236   0.1273 
 H                     1.99045   2.18154  -4.33258 
 H                     2.76633   0.47848  -2.7216 
 H                    -1.70788   2.79394   4.10913 
 H                    -2.63036   0.98277   2.7099 
 Cu                   -0.06951  -1.62847   0.01616 
 C                    -3.27436  -0.77333   1.06039 
 C                    -4.5971   -0.44348   0.72055 
 C                    -3.03467  -1.63559   2.15076 
 C                    -5.66294  -0.95552   1.4684 
 H                    -4.79497   0.1969   -0.12703 
 C                    -4.10581  -2.13155   2.89997 
 H                    -2.02007  -1.93564   2.38537 
 C                    -5.42001  -1.79294   2.56055 
 H                    -6.67789  -0.7017    1.1952 
 H                    -3.91205  -2.78941   3.73608 
 H                    -6.24681  -2.18549   3.13588 
 C                    -2.51316   0.46135  -1.43907 
 C                    -2.40535  -0.34986  -2.58232 
 C                    -3.19287   1.68935  -1.52094 
 C                    -2.98431   0.05492  -3.78845 
 H                    -1.86345  -1.28495  -2.51873 
 C                    -3.77444   2.08503  -2.72928 
 H                    -3.24505   2.33323  -0.65518 
 C                    -3.67276   1.26908  -3.86142 
 H                    -2.89666  -0.57318  -4.66399 
 H                    -4.30755   3.02438  -2.78569 
 H                    -4.12509   1.57907  -4.79326 
 C                     3.29034  -1.10146  -0.8322 
 C                     4.61686  -0.79802  -0.48272 
 C                     3.04651  -2.07829  -1.81775 
 C                     5.67952  -1.43987  -1.12823 
 H                     4.82061  -0.08214   0.30019 
 C                     4.11186  -2.70671  -2.46768 
 H                     2.02578  -2.3564   -2.04812 
 C                     5.43027  -2.38582  -2.12719 
 H                     6.69668  -1.20191  -0.84866 
 H                     3.91226  -3.45402  -3.22304 
 H                     6.254    -2.87684  -2.62645 
 C                     2.46496   0.42129   1.49534 
 C                     2.11592  -0.19406   2.71156 
 C                     3.31384   1.54232   1.50065 
 C                     2.63457   0.29309   3.91619 
 H                     1.43928  -1.04004   2.70362 
 C                     3.83587   2.01611   2.70814 
 H                     3.5451    2.04736   0.57369 
 C                     3.50062   1.39045   3.91432 
 H                     2.36063  -0.18184   4.84812 
 H                     4.502     2.86838   2.70767 
 H                     3.90793   1.75991   4.84532 
 O                    -1.01009   3.83752  -1.27681 
 O                     1.35837   3.8648    0.86343 
 C                     1.90516   4.97111   1.64758 
 H                     0.20489   3.76037  -3.71367 
 H                     0.17777   4.15675   3.30014 
 H                     2.67824   5.40538   1.01864 
 H                     2.34526   4.61367   2.58105 
 H                     1.14127   5.72184   1.86481 
 C                    -1.45609   4.89338  -2.18398 
 H                    -1.9279    4.47557  -3.07618 
 H                    -2.18646   5.46279  -1.61447 
 H                    -0.6281    5.54391  -2.47612 
 I                    -0.18666  -4.12533  -0.02804 
 
 ITRead=  0  0  0  0  0  0  0  0  0  0  0  0  0  0  0  0  0  0  0  0
 ITRead=  0  0  0  0  0  0  0  0  0  0  0  0  0  0  0  0  0  0  0  0
 ITRead=  0  0  0  0  0  0  0  0  0  0  0  0  0  0  0  0  0  0  0  0
 ITRead=  0  0  0  0  0  0  0  0  0  0  0  0  0  0  0  0
 MicOpt= -1 -1 -1 -1 -1 -1 -1 -1 -1 -1 -1 -1 -1 -1 -1 -1 -1 -1 -1 -1
 MicOpt= -1 -1 -1 -1 -1 -1 -1 -1 -1 -1 -1 -1 -1 -1 -1 -1 -1 -1 -1 -1
 MicOpt= -1 -1 -1 -1 -1 -1 -1 -1 -1 -1 -1 -1 -1 -1 -1 -1 -1 -1 -1 -1
 MicOpt= -1 -1 -1 -1 -1 -1 -1 -1 -1 -1 -1 -1 -1 -1 -1 -1
 NAtoms=     76 NQM=       76 NQMF=       0 NMMI=      0 NMMIF=      0
                NMic=       0 NMicF=      0.
                    Isotopes and Nuclear Properties:
 (Nuclear quadrupole moments (NQMom) in fm**2, nuclear magnetic moments (NMagM)
  in nuclear magnetons)

  Atom         1           2           3           4           5           6           7           8           9          10
 IAtWgt=          12          12          12          12          12          12          12          12          12          12
 AtmWgt=  12.0000000  12.0000000  12.0000000  12.0000000  12.0000000  12.0000000  12.0000000  12.0000000  12.0000000  12.0000000
 NucSpn=           0           0           0           0           0           0           0           0           0           0
 AtZEff=  -0.0000000  -0.0000000  -0.0000000  -0.0000000  -0.0000000  -0.0000000  -0.0000000  -0.0000000  -0.0000000  -0.0000000
 NQMom=    0.0000000   0.0000000   0.0000000   0.0000000   0.0000000   0.0000000   0.0000000   0.0000000   0.0000000   0.0000000
 NMagM=    0.0000000   0.0000000   0.0000000   0.0000000   0.0000000   0.0000000   0.0000000   0.0000000   0.0000000   0.0000000
 AtZNuc=   6.0000000   6.0000000   6.0000000   6.0000000   6.0000000   6.0000000   6.0000000   6.0000000   6.0000000   6.0000000

  Atom        11          12          13          14          15          16          17          18          19          20
 IAtWgt=          12          12          31          31           1           1           1           1          63          12
 AtmWgt=  12.0000000  12.0000000  30.9737634  30.9737634   1.0078250   1.0078250   1.0078250   1.0078250  62.9295992  12.0000000
 NucSpn=           0           0           1           1           1           1           1           1           3           0
 AtZEff=  -0.0000000  -0.0000000  -0.0000000  -0.0000000  -0.0000000  -0.0000000  -0.0000000  -0.0000000  -0.0000000  -0.0000000
 NQMom=    0.0000000   0.0000000   0.0000000   0.0000000   0.0000000   0.0000000   0.0000000   0.0000000 -22.0000000   0.0000000
 NMagM=    0.0000000   0.0000000   1.1316000   1.1316000   2.7928460   2.7928460   2.7928460   2.7928460   2.2233000   0.0000000
 AtZNuc=   6.0000000   6.0000000  15.0000000  15.0000000   1.0000000   1.0000000   1.0000000   1.0000000  29.0000000   6.0000000

  Atom        21          22          23          24          25          26          27          28          29          30
 IAtWgt=          12          12          12           1          12           1          12           1           1           1
 AtmWgt=  12.0000000  12.0000000  12.0000000   1.0078250  12.0000000   1.0078250  12.0000000   1.0078250   1.0078250   1.0078250
 NucSpn=           0           0           0           1           0           1           0           1           1           1
 AtZEff=  -0.0000000  -0.0000000  -0.0000000  -0.0000000  -0.0000000  -0.0000000  -0.0000000  -0.0000000  -0.0000000  -0.0000000
 NQMom=    0.0000000   0.0000000   0.0000000   0.0000000   0.0000000   0.0000000   0.0000000   0.0000000   0.0000000   0.0000000
 NMagM=    0.0000000   0.0000000   0.0000000   2.7928460   0.0000000   2.7928460   0.0000000   2.7928460   2.7928460   2.7928460
 AtZNuc=   6.0000000   6.0000000   6.0000000   1.0000000   6.0000000   1.0000000   6.0000000   1.0000000   1.0000000   1.0000000

  Atom        31          32          33          34          35          36          37          38          39          40
 IAtWgt=          12          12          12          12           1          12           1          12           1           1
 AtmWgt=  12.0000000  12.0000000  12.0000000  12.0000000   1.0078250  12.0000000   1.0078250  12.0000000   1.0078250   1.0078250
 NucSpn=           0           0           0           0           1           0           1           0           1           1
 AtZEff=  -0.0000000  -0.0000000  -0.0000000  -0.0000000  -0.0000000  -0.0000000  -0.0000000  -0.0000000  -0.0000000  -0.0000000
 NQMom=    0.0000000   0.0000000   0.0000000   0.0000000   0.0000000   0.0000000   0.0000000   0.0000000   0.0000000   0.0000000
 NMagM=    0.0000000   0.0000000   0.0000000   0.0000000   2.7928460   0.0000000   2.7928460   0.0000000   2.7928460   2.7928460
 AtZNuc=   6.0000000   6.0000000   6.0000000   6.0000000   1.0000000   6.0000000   1.0000000   6.0000000   1.0000000   1.0000000

  Atom        41          42          43          44          45          46          47          48          49          50
 IAtWgt=           1          12          12          12          12           1          12           1          12           1
 AtmWgt=   1.0078250  12.0000000  12.0000000  12.0000000  12.0000000   1.0078250  12.0000000   1.0078250  12.0000000   1.0078250
 NucSpn=           1           0           0           0           0           1           0           1           0           1
 AtZEff=  -0.0000000  -0.0000000  -0.0000000  -0.0000000  -0.0000000  -0.0000000  -0.0000000  -0.0000000  -0.0000000  -0.0000000
 NQMom=    0.0000000   0.0000000   0.0000000   0.0000000   0.0000000   0.0000000   0.0000000   0.0000000   0.0000000   0.0000000
 NMagM=    2.7928460   0.0000000   0.0000000   0.0000000   0.0000000   2.7928460   0.0000000   2.7928460   0.0000000   2.7928460
 AtZNuc=   1.0000000   6.0000000   6.0000000   6.0000000   6.0000000   1.0000000   6.0000000   1.0000000   6.0000000   1.0000000

  Atom        51          52          53          54          55          56          57          58          59          60
 IAtWgt=           1           1          12          12          12          12           1          12           1          12
 AtmWgt=   1.0078250   1.0078250  12.0000000  12.0000000  12.0000000  12.0000000   1.0078250  12.0000000   1.0078250  12.0000000
 NucSpn=           1           1           0           0           0           0           1           0           1           0
 AtZEff=  -0.0000000  -0.0000000  -0.0000000  -0.0000000  -0.0000000  -0.0000000  -0.0000000  -0.0000000  -0.0000000  -0.0000000
 NQMom=    0.0000000   0.0000000   0.0000000   0.0000000   0.0000000   0.0000000   0.0000000   0.0000000   0.0000000   0.0000000
 NMagM=    2.7928460   2.7928460   0.0000000   0.0000000   0.0000000   0.0000000   2.7928460   0.0000000   2.7928460   0.0000000
 AtZNuc=   1.0000000   1.0000000   6.0000000   6.0000000   6.0000000   6.0000000   1.0000000   6.0000000   1.0000000   6.0000000

  Atom        61          62          63          64          65          66          67          68          69          70
 IAtWgt=           1           1           1          16          16          12           1           1           1           1
 AtmWgt=   1.0078250   1.0078250   1.0078250  15.9949146  15.9949146  12.0000000   1.0078250   1.0078250   1.0078250   1.0078250
 NucSpn=           1           1           1           0           0           0           1           1           1           1
 AtZEff=  -0.0000000  -0.0000000  -0.0000000  -0.0000000  -0.0000000  -0.0000000  -0.0000000  -0.0000000  -0.0000000  -0.0000000
 NQMom=    0.0000000   0.0000000   0.0000000   0.0000000   0.0000000   0.0000000   0.0000000   0.0000000   0.0000000   0.0000000
 NMagM=    2.7928460   2.7928460   2.7928460   0.0000000   0.0000000   0.0000000   2.7928460   2.7928460   2.7928460   2.7928460
 AtZNuc=   1.0000000   1.0000000   1.0000000   8.0000000   8.0000000   6.0000000   1.0000000   1.0000000   1.0000000   1.0000000

  Atom        71          72          73          74          75          76
 IAtWgt=           1          12           1           1           1         127
 AtmWgt=   1.0078250  12.0000000   1.0078250   1.0078250   1.0078250 126.9004000
 NucSpn=           1           0           1           1           1           5
 AtZEff=  -0.0000000  -0.0000000  -0.0000000  -0.0000000  -0.0000000  -0.0000000
 NQMom=    0.0000000   0.0000000   0.0000000   0.0000000   0.0000000 -71.0000000
 NMagM=    2.7928460   0.0000000   2.7928460   2.7928460   2.7928460   2.8132800
 AtZNuc=   1.0000000   6.0000000   1.0000000   1.0000000   1.0000000  53.0000000
 Leave Link  101 at Wed Apr  3 10:29:17 2024, MaxMem= 10737418240 cpu:               3.9 elap:               0.1
 (Enter /lustre/home/acct-chenxiangyang/chenxiangyang-user1/software/g16/l202.exe)
 Stoichiometry    C38H32CuIO2P2
 Framework group  C1[X(C38H32CuIO2P2)]
 Deg. of freedom   222
 Full point group                 C1      NOp   1
 Largest Abelian subgroup         C1      NOp   1
 Largest concise Abelian subgroup C1      NOp   1
                         Standard orientation:                         
 ---------------------------------------------------------------------
 Center     Atomic      Atomic             Coordinates (Angstroms)
 Number     Number       Type             X           Y           Z
 ---------------------------------------------------------------------
      1          6           0        1.548603    2.131235   -3.347102
      2          6           0        0.539423    3.027823   -2.996502
      3          6           0       -0.020596    2.971119   -1.719074
      4          6           0        0.400132    2.001965   -0.785033
      5          6           0        1.416176    1.095413   -1.153411
      6          6           0        1.989395    1.171835   -2.438349
      7          6           0       -0.200472    2.105759    0.588246
      8          6           0        0.308340    3.136896    1.404889
      9          6           0       -0.224190    3.377832    2.672287
     10          6           0       -1.289224    2.603169    3.130792
     11          6           0       -1.814203    1.583829    2.339982
     12          6           0       -1.272871    1.324200    1.065009
     13         15           0        1.813613   -0.325328   -0.046976
     14         15           0       -1.805172   -0.172359    0.127303
     15          1           0        1.990448    2.181544   -4.332577
     16          1           0        2.766331    0.478480   -2.721597
     17          1           0       -1.707879    2.793936    4.109129
     18          1           0       -2.630359    0.982768    2.709904
     19         29           0       -0.069509   -1.628471    0.016164
     20          6           0       -3.274359   -0.773327    1.060388
     21          6           0       -4.597099   -0.443484    0.720546
     22          6           0       -3.034667   -1.635590    2.150762
     23          6           0       -5.662943   -0.955524    1.468400
     24          1           0       -4.794971    0.196896   -0.127026
     25          6           0       -4.105814   -2.131552    2.899966
     26          1           0       -2.020073   -1.935643    2.385365
     27          6           0       -5.420014   -1.792944    2.560553
     28          1           0       -6.677894   -0.701696    1.195203
     29          1           0       -3.912047   -2.789412    3.736076
     30          1           0       -6.246805   -2.185495    3.135881
     31          6           0       -2.513164    0.461345   -1.439066
     32          6           0       -2.405349   -0.349856   -2.582321
     33          6           0       -3.192871    1.689354   -1.520939
     34          6           0       -2.984306    0.054924   -3.788449
     35          1           0       -1.863449   -1.284947   -2.518730
     36          6           0       -3.774441    2.085035   -2.729275
     37          1           0       -3.245051    2.333232   -0.655176
     38          6           0       -3.672764    1.269075   -3.861416
     39          1           0       -2.896656   -0.573184   -4.663994
     40          1           0       -4.307554    3.024383   -2.785687
     41          1           0       -4.125087    1.579074   -4.793255
     42          6           0        3.290341   -1.101463   -0.832198
     43          6           0        4.616858   -0.798018   -0.482716
     44          6           0        3.046506   -2.078285   -1.817750
     45          6           0        5.679525   -1.439866   -1.128229
     46          1           0        4.820609   -0.082141    0.300194
     47          6           0        4.111865   -2.706706   -2.467678
     48          1           0        2.025785   -2.356400   -2.048116
     49          6           0        5.430267   -2.385819   -2.127186
     50          1           0        6.696684   -1.201912   -0.848660
     51          1           0        3.912255   -3.454016   -3.223043
     52          1           0        6.254002   -2.876842   -2.626453
     53          6           0        2.464964    0.421291    1.495335
     54          6           0        2.115918   -0.194061    2.711560
     55          6           0        3.313837    1.542322    1.500654
     56          6           0        2.634574    0.293094    3.916186
     57          1           0        1.439279   -1.040044    2.703618
     58          6           0        3.835872    2.016109    2.708136
     59          1           0        3.545103    2.047360    0.573689
     60          6           0        3.500617    1.390445    3.914321
     61          1           0        2.360628   -0.181844    4.848123
     62          1           0        4.502002    2.868376    2.707668
     63          1           0        3.907931    1.759909    4.845316
     64          8           0       -1.010090    3.837522   -1.276808
     65          8           0        1.358373    3.864801    0.863433
     66          6           0        1.905157    4.971108    1.647577
     67          1           0        0.204886    3.760370   -3.713665
     68          1           0        0.177773    4.156754    3.300142
     69          1           0        2.678241    5.405384    1.018637
     70          1           0        2.345256    4.613667    2.581052
     71          1           0        1.141273    5.721838    1.864809
     72          6           0       -1.456093    4.893380   -2.183977
     73          1           0       -1.927896    4.475570   -3.076178
     74          1           0       -2.186463    5.462788   -1.614471
     75          1           0       -0.628100    5.543913   -2.476119
     76         53           0       -0.186659   -4.125333   -0.028042
 ---------------------------------------------------------------------
 Rotational constants (GHZ):           0.0648203           0.0638938           0.0493968
 Leave Link  202 at Wed Apr  3 10:29:18 2024, MaxMem= 10737418240 cpu:               0.4 elap:               0.0
 (Enter /lustre/home/acct-chenxiangyang/chenxiangyang-user1/software/g16/l301.exe)
 Standard basis: def2TZVPP (5D, 7F)
 Ernie: Thresh=  0.10000D-02 Tol=  0.10000D-05 Strict=F.
 There are  2155 symmetry adapted cartesian basis functions of A   symmetry.
 There are  1886 symmetry adapted basis functions of A   symmetry.
  1886 basis functions,  2961 primitive gaussians,  2155 cartesian basis functions
   180 alpha electrons      180 beta electrons
       nuclear repulsion energy      7295.5913049917 Hartrees.
 IExCor= 1009 DFT=T Ex+Corr=PBE1PBE ExCW=0 ScaHFX=  0.250000
 ScaDFX=  0.750000  0.750000  1.000000  1.000000 ScalE2=  1.000000  1.000000
 IRadAn=      5 IRanWt=     -1 IRanGd=            0 ICorTp=0 IEmpDi=141
 NAtoms=   76 NActive=   76 NUniq=   76 SFac= 1.00D+00 NAtFMM=   60 NAOKFM=T Big=T
 Integral buffers will be    131072 words long.
 Raffenetti 2 integral format.
 Two-electron integral symmetry is turned on.
 R6Disp:  Grimme-D3(BJ) Dispersion energy=       -0.1374288816 Hartrees.
 Nuclear repulsion after empirical dispersion term =     7295.4538761101 Hartrees.
 ------------------------------------------------------------------------------
 Polarizable Continuum Model (PCM)
 =================================
 Model                : PCM.
 Atomic radii         : SMD-Coulomb.
 Polarization charges : Total charges.
 Charge compensation  : None.
 Solution method      : On-the-fly selection.
 Cavity type          : VdW (van der Waals Surface) (Alpha=1.000).
 Cavity algorithm     : GePol (No added spheres)
                        Default sphere list used, NSphG=   76.
                        Lebedev-Laikov grids with approx.  5.0 points / Ang**2.
                        Smoothing algorithm: York/Karplus (Gamma=1.0000).
                        Polarization charges: spherical gaussians, with
                                              point-specific exponents (IZeta= 3).
                        Self-potential: point-specific (ISelfS= 7).
                        Self-field    : sphere-specific E.n sum rule (ISelfD= 2).
 Solvent              : DiMethylSulfoxide, Eps=  46.826000 Eps(inf)=   2.007889
 ------------------------------------------------------------------------------
 GePol: Number of generator spheres                  =      76
 GePol: Total number of spheres                      =      76
 GePol: Number of exposed spheres                    =      76 (100.00%)
 GePol: Number of points                             =    5615
 GePol: Average weight of points                     =       0.11
 GePol: Minimum weight of points                     =   0.16D-09
 GePol: Maximum weight of points                     =    0.20615
 GePol: Number of points with low weight             =     326
 GePol: Fraction of low-weight points (<1% of avg)   =       5.81%
 GePol: Cavity surface area                          =    620.588 Ang**2
 GePol: Cavity volume                                =    647.979 Ang**3
 ------------------------------------------------------------------------------
 Atomic radii for non-electrostatic terms: SMD-CDS.
 ------------------------------------------------------------------------------
 PCM non-electrostatic energy =         0.0048832409 Hartrees.
 Nuclear repulsion after PCM non-electrostatic terms =     7295.4587593511 Hartrees.
 Leave Link  301 at Wed Apr  3 10:29:18 2024, MaxMem= 10737418240 cpu:               4.7 elap:               0.1
 (Enter /lustre/home/acct-chenxiangyang/chenxiangyang-user1/software/g16/l302.exe)
 NPDir=0 NMtPBC=     1 NCelOv=     1 NCel=       1 NClECP=     1 NCelD=      1
         NCelK=      1 NCelE2=     1 NClLst=     1 CellRange=     0.0.
 One-electron integrals computed using PRISM.
 One-electron integral symmetry used in STVInt
   1 Symmetry operations used in ECPInt.
 ECPInt:  NShTT=  241165 NPrTT=  697930 LenC2=  186608 LenP2D=  364414.
 LDataN:  DoStor=T MaxTD1= 8 Len=  415
 Number of processors reduced to  29 by ecpmxn.
 NBasis=  1886 RedAO= T EigKep=  3.28D-06  NBF=  1886
 NBsUse=  1886 1.00D-06 EigRej= -1.00D+00 NBFU=  1886
 Precomputing XC quadrature grid using
 IXCGrd= 4 IRadAn=           5 IRanWt=          -1 IRanGd=           0 AccXCQ= 0.00D+00.
 Defaulting to unpruned grid for atomic number  53.
 Generated NRdTot=       0 NPtTot=           0 NUsed=           0 NTot=          32
 NSgBfM=  2005  1992  2000  2005  2005 MxSgAt=    76 MxSgA2=    76.
 Leave Link  302 at Wed Apr  3 10:29:25 2024, MaxMem= 10737418240 cpu:             269.5 elap:               6.9
 (Enter /lustre/home/acct-chenxiangyang/chenxiangyang-user1/software/g16/l303.exe)
 DipDrv:  MaxL=1.
 Leave Link  303 at Wed Apr  3 10:29:26 2024, MaxMem= 10737418240 cpu:              20.0 elap:               0.6
 (Enter /lustre/home/acct-chenxiangyang/chenxiangyang-user1/software/g16/l401.exe)
 ExpMin= 3.88D-02 ExpMax= 3.78D+05 ExpMxC= 3.65D+03 IAcc=3 IRadAn=         5 AccDes= 0.00D+00
 Harris functional with IExCor= 1009 and IRadAn=       5 diagonalized for initial guess.
 HarFok:  IExCor= 1009 AccDes= 0.00D+00 IRadAn=         5 IDoV= 1 UseB2=F ITyADJ=14
 ICtDFT=  3500011 ScaDFX=  1.000000  1.000000  1.000000  1.000000
 Defaulting to unpruned grid for atomic number  53.
 FoFCou: FMM=F IPFlag=           0 FMFlag=      100000 FMFlg1=        2001
         NFxFlg=           0 DoJE=T BraDBF=F KetDBF=T FulRan=T
         wScrn=  0.000000 ICntrl=       500 IOpCl=  0 I1Cent=   200000004 NGrid=           0
         NMat0=    1 NMatS0=      1 NMatT0=    0 NMatD0=    1 NMtDS0=    0 NMtDT0=    0
 Petite list used in FoFCou.
 Harris En= -4237.79609218245    
 JPrj=0 DoOrth=F DoCkMO=F.
 Leave Link  401 at Wed Apr  3 10:29:35 2024, MaxMem= 10737418240 cpu:             372.9 elap:               9.4
 (Enter /lustre/home/acct-chenxiangyang/chenxiangyang-user1/software/g16/l502.exe)
 Integral symmetry usage will be decided dynamically.
 Closed shell SCF:
 Using DIIS extrapolation, IDIIS=  1040.
 NGot= 10737418240 LenX= 10728025952 LenY= 10723379772
 Requested convergence on RMS density matrix=1.00D-08 within 128 cycles.
 Requested convergence on MAX density matrix=1.00D-06.
 Requested convergence on             energy=1.00D-06.
 No special actions if energy rises.
 Fock matrices will be formed incrementally for  20 cycles.

 Cycle   1  Pass 1  IDiag  1:
 FoFJK:  IHMeth= 1 ICntrl=       0 DoSepK=F KAlg= 0 I1Cent=           0 FoldK=F
 IRaf= 780000000 NMat=       1 IRICut=       1 DoRegI=T DoRafI=F ISym2E= 0 IDoP0=0 IntGTp=1.
 FoFCou: FMM=T IPFlag=           0 FMFlag=      100000 FMFlg1=        2001
         NFxFlg=           0 DoJE=F BraDBF=F KetDBF=F FulRan=T
         wScrn=  0.000000 ICntrl=         0 IOpCl=  0 I1Cent=           0 NGrid=           0
         NMat0=    1 NMatS0=      1 NMatT0=    0 NMatD0=    1 NMtDS0=    0 NMtDT0=    0
 Symmetry not used in FoFCou.
 FMM levels:  10  Number of levels for PrismC:   9
 Defaulting to unpruned grid for atomic number  53.
 Defaulting to unpruned grid for atomic number  53.
 Defaulting to unpruned grid for atomic number  53.
 Defaulting to unpruned grid for atomic number  53.
 Defaulting to unpruned grid for atomic number  53.
 Defaulting to unpruned grid for atomic number  53.
 Defaulting to unpruned grid for atomic number  53.
 Defaulting to unpruned grid for atomic number  53.
 Defaulting to unpruned grid for atomic number  53.
 Defaulting to unpruned grid for atomic number  53.
 Defaulting to unpruned grid for atomic number  53.
 Defaulting to unpruned grid for atomic number  53.
 Defaulting to unpruned grid for atomic number  53.
 Defaulting to unpruned grid for atomic number  53.
 Defaulting to unpruned grid for atomic number  53.
 Defaulting to unpruned grid for atomic number  53.
 Defaulting to unpruned grid for atomic number  53.
 Defaulting to unpruned grid for atomic number  53.
 Defaulting to unpruned grid for atomic number  53.
 Defaulting to unpruned grid for atomic number  53.
 Defaulting to unpruned grid for atomic number  53.
 Defaulting to unpruned grid for atomic number  53.
 Defaulting to unpruned grid for atomic number  53.
 Defaulting to unpruned grid for atomic number  53.
 Defaulting to unpruned grid for atomic number  53.
 Defaulting to unpruned grid for atomic number  53.
 Defaulting to unpruned grid for atomic number  53.
 Defaulting to unpruned grid for atomic number  53.
 Defaulting to unpruned grid for atomic number  53.
 Defaulting to unpruned grid for atomic number  53.
 Defaulting to unpruned grid for atomic number  53.
 Defaulting to unpruned grid for atomic number  53.
 Defaulting to unpruned grid for atomic number  53.
 Defaulting to unpruned grid for atomic number  53.
 Defaulting to unpruned grid for atomic number  53.
 Defaulting to unpruned grid for atomic number  53.
 Defaulting to unpruned grid for atomic number  53.
 Defaulting to unpruned grid for atomic number  53.
 Defaulting to unpruned grid for atomic number  53.
 Defaulting to unpruned grid for atomic number  53.
 Inv3:  Mode=1 IEnd=    94584675.
 Iteration    1 A*A^-1 deviation from unit magnitude is 3.55D-15 for   2645.
 Iteration    1 A*A^-1 deviation from orthogonality  is 2.40D-15 for   2575    113.
 Iteration    1 A^-1*A deviation from unit magnitude is 3.55D-15 for   2645.
 Iteration    1 A^-1*A deviation from orthogonality  is 4.01D-13 for   1599   1530.
 E= -4234.76533490139    
 DIIS: error= 3.46D-02 at cycle   1 NSaved=   1.
 NSaved= 1 IEnMin= 1 EnMin= -4234.76533490139     IErMin= 1 ErrMin= 3.46D-02
 ErrMax= 3.46D-02  0.00D+00 EMaxC= 1.00D-01 BMatC= 5.17D+00 BMatP= 5.17D+00
 IDIUse=3 WtCom= 6.54D-01 WtEn= 3.46D-01
 Coeff-Com:  0.100D+01
 Coeff-En:   0.100D+01
 Coeff:      0.100D+01
 Gap=     0.817 Goal=   None    Shift=    0.000
 GapD=    0.817 DampG=2.000 DampE=0.250 DampFc=0.5000 IDamp=-1.
 Damping current iteration by 5.00D-01
 RMSDP=7.97D-03 MaxDP=3.69D+00              OVMax= 5.37D-01

 Cycle   2  Pass 1  IDiag  1:
 RMSU=  3.97D-03    CP:  1.07D+00
 E= -4235.60356106069     Delta-E=       -0.838226159297 Rises=F Damp=T
 DIIS: error= 1.81D-02 at cycle   2 NSaved=   2.
 NSaved= 2 IEnMin= 2 EnMin= -4235.60356106069     IErMin= 2 ErrMin= 1.81D-02
 ErrMax= 1.81D-02  0.00D+00 EMaxC= 1.00D-01 BMatC= 1.26D+00 BMatP= 5.17D+00
 IDIUse=3 WtCom= 8.19D-01 WtEn= 1.81D-01
 Coeff-Com:  0.298D+00 0.702D+00
 Coeff-En:   0.336D+00 0.664D+00
 Coeff:      0.305D+00 0.695D+00
 Gap=     0.228 Goal=   None    Shift=    0.000
 RMSDP=3.44D-03 MaxDP=1.57D+00 DE=-8.38D-01 OVMax= 2.32D-01

 Cycle   3  Pass 1  IDiag  1:
 RMSU=  1.01D-03    CP:  9.80D-01  1.80D-01
 E= -4237.00987877134     Delta-E=       -1.406317710650 Rises=F Damp=F
 DIIS: error= 7.78D-03 at cycle   3 NSaved=   3.
 NSaved= 3 IEnMin= 3 EnMin= -4237.00987877134     IErMin= 3 ErrMin= 7.78D-03
 ErrMax= 7.78D-03  0.00D+00 EMaxC= 1.00D-01 BMatC= 2.90D-01 BMatP= 1.26D+00
 IDIUse=3 WtCom= 9.22D-01 WtEn= 7.78D-02
 Coeff-Com:  0.169D+00-0.995D-01 0.931D+00
 Coeff-En:   0.669D-01 0.000D+00 0.933D+00
 Coeff:      0.161D+00-0.917D-01 0.931D+00
 Gap=     0.211 Goal=   None    Shift=    0.000
 RMSDP=9.08D-04 MaxDP=4.63D-01 DE=-1.41D+00 OVMax= 1.41D-01

 Cycle   4  Pass 1  IDiag  1:
 RMSU=  3.93D-04    CP:  9.60D-01 -1.91D-02  8.17D-01
 E= -4237.11827084590     Delta-E=       -0.108392074565 Rises=F Damp=F
 DIIS: error= 5.83D-03 at cycle   4 NSaved=   4.
 NSaved= 4 IEnMin= 4 EnMin= -4237.11827084590     IErMin= 4 ErrMin= 5.83D-03
 ErrMax= 5.83D-03  0.00D+00 EMaxC= 1.00D-01 BMatC= 1.62D-01 BMatP= 2.90D-01
 IDIUse=3 WtCom= 9.42D-01 WtEn= 5.83D-02
 Coeff-Com: -0.115D-01 0.582D-01 0.322D+00 0.631D+00
 Coeff-En:   0.000D+00 0.000D+00 0.315D+00 0.685D+00
 Coeff:     -0.108D-01 0.548D-01 0.322D+00 0.634D+00
 Gap=     0.177 Goal=   None    Shift=    0.000
 RMSDP=2.51D-04 MaxDP=7.26D-02 DE=-1.08D-01 OVMax= 5.54D-02

 Cycle   5  Pass 1  IDiag  1:
 RMSU=  1.22D-04    CP:  9.62D-01  1.77D-02  9.22D-01  6.89D-01
 E= -4237.17456711607     Delta-E=       -0.056296270166 Rises=F Damp=F
 DIIS: error= 1.53D-03 at cycle   5 NSaved=   5.
 NSaved= 5 IEnMin= 5 EnMin= -4237.17456711607     IErMin= 5 ErrMin= 1.53D-03
 ErrMax= 1.53D-03  0.00D+00 EMaxC= 1.00D-01 BMatC= 1.61D-02 BMatP= 1.62D-01
 IDIUse=3 WtCom= 9.85D-01 WtEn= 1.53D-02
 Coeff-Com: -0.199D-01 0.139D-01 0.128D+00 0.404D+00 0.474D+00
 Coeff-En:   0.000D+00 0.000D+00 0.000D+00 0.141D+00 0.859D+00
 Coeff:     -0.196D-01 0.137D-01 0.126D+00 0.400D+00 0.480D+00
 Gap=     0.164 Goal=   None    Shift=    0.000
 RMSDP=8.04D-05 MaxDP=1.86D-02 DE=-5.63D-02 OVMax= 2.52D-02

 Cycle   6  Pass 1  IDiag  1:
 RMSU=  5.59D-05    CP:  9.62D-01  1.28D-02  9.06D-01  7.73D-01  6.75D-01
 E= -4237.18412136094     Delta-E=       -0.009554244878 Rises=F Damp=F
 DIIS: error= 4.63D-04 at cycle   6 NSaved=   6.
 NSaved= 6 IEnMin= 6 EnMin= -4237.18412136094     IErMin= 6 ErrMin= 4.63D-04
 ErrMax= 4.63D-04  0.00D+00 EMaxC= 1.00D-01 BMatC= 6.05D-04 BMatP= 1.61D-02
 IDIUse=3 WtCom= 9.95D-01 WtEn= 4.63D-03
 Coeff-Com: -0.632D-02-0.417D-02 0.439D-01 0.142D+00 0.241D+00 0.583D+00
 Coeff-En:   0.000D+00 0.000D+00 0.000D+00 0.000D+00 0.000D+00 0.100D+01
 Coeff:     -0.629D-02-0.415D-02 0.437D-01 0.141D+00 0.240D+00 0.585D+00
 Gap=     0.163 Goal=   None    Shift=    0.000
 RMSDP=3.07D-05 MaxDP=5.38D-03 DE=-9.55D-03 OVMax= 8.88D-03

 Cycle   7  Pass 1  IDiag  1:
 RMSU=  2.32D-05    CP:  9.62D-01  1.19D-02  9.15D-01  7.77D-01  7.74D-01
                    CP:  7.80D-01
 E= -4237.18453905287     Delta-E=       -0.000417691926 Rises=F Damp=F
 DIIS: error= 2.06D-04 at cycle   7 NSaved=   7.
 NSaved= 7 IEnMin= 7 EnMin= -4237.18453905287     IErMin= 7 ErrMin= 2.06D-04
 ErrMax= 2.06D-04  0.00D+00 EMaxC= 1.00D-01 BMatC= 1.71D-04 BMatP= 6.05D-04
 IDIUse=3 WtCom= 9.98D-01 WtEn= 2.06D-03
 Coeff-Com: -0.105D-02-0.296D-02 0.490D-02 0.212D-01 0.747D-01 0.382D+00
 Coeff-Com:  0.521D+00
 Coeff-En:   0.000D+00 0.000D+00 0.000D+00 0.000D+00 0.000D+00 0.234D+00
 Coeff-En:   0.766D+00
 Coeff:     -0.105D-02-0.295D-02 0.489D-02 0.212D-01 0.745D-01 0.382D+00
 Coeff:      0.522D+00
 Gap=     0.163 Goal=   None    Shift=    0.000
 RMSDP=1.29D-05 MaxDP=2.54D-03 DE=-4.18D-04 OVMax= 3.26D-03

 Cycle   8  Pass 1  IDiag  1:
 RMSU=  7.53D-06    CP:  9.62D-01  1.24D-02  9.13D-01  7.80D-01  7.81D-01
                    CP:  9.05D-01  6.91D-01
 E= -4237.18469555919     Delta-E=       -0.000156506318 Rises=F Damp=F
 DIIS: error= 2.90D-05 at cycle   8 NSaved=   8.
 NSaved= 8 IEnMin= 8 EnMin= -4237.18469555919     IErMin= 8 ErrMin= 2.90D-05
 ErrMax= 2.90D-05  0.00D+00 EMaxC= 1.00D-01 BMatC= 5.12D-06 BMatP= 1.71D-04
 IDIUse=1 WtCom= 1.00D+00 WtEn= 0.00D+00
 Coeff-Com: -0.483D-04-0.623D-03-0.177D-02-0.290D-02 0.112D-01 0.104D+00
 Coeff-Com:  0.216D+00 0.674D+00
 Coeff:     -0.483D-04-0.623D-03-0.177D-02-0.290D-02 0.112D-01 0.104D+00
 Coeff:      0.216D+00 0.674D+00
 Gap=     0.163 Goal=   None    Shift=    0.000
 RMSDP=3.76D-06 MaxDP=4.71D-04 DE=-1.57D-04 OVMax= 6.38D-04

 Cycle   9  Pass 1  IDiag  1:
 RMSU=  2.44D-06    CP:  9.62D-01  1.29D-02  9.14D-01  7.79D-01  7.91D-01
                    CP:  9.32D-01  7.19D-01  1.07D+00
 E= -4237.18469957255     Delta-E=       -0.000004013365 Rises=F Damp=F
 DIIS: error= 2.00D-05 at cycle   9 NSaved=   9.
 NSaved= 9 IEnMin= 9 EnMin= -4237.18469957255     IErMin= 9 ErrMin= 2.00D-05
 ErrMax= 2.00D-05  0.00D+00 EMaxC= 1.00D-01 BMatC= 2.63D-06 BMatP= 5.12D-06
 IDIUse=1 WtCom= 1.00D+00 WtEn= 0.00D+00
 Coeff-Com:  0.133D-03-0.314D-03-0.128D-02-0.332D-02-0.231D-02 0.151D-01
 Coeff-Com:  0.684D-01 0.393D+00 0.530D+00
 Coeff:      0.133D-03-0.314D-03-0.128D-02-0.332D-02-0.231D-02 0.151D-01
 Coeff:      0.684D-01 0.393D+00 0.530D+00
 Gap=     0.163 Goal=   None    Shift=    0.000
 RMSDP=1.49D-06 MaxDP=2.26D-04 DE=-4.01D-06 OVMax= 2.75D-04

 Cycle  10  Pass 1  IDiag  1:
 RMSU=  9.08D-07    CP:  9.62D-01  1.29D-02  9.14D-01  7.80D-01  7.94D-01
                    CP:  9.39D-01  7.44D-01  1.16D+00  8.62D-01
 E= -4237.18470116064     Delta-E=       -0.000001588081 Rises=F Damp=F
 DIIS: error= 6.96D-06 at cycle  10 NSaved=  10.
 NSaved=10 IEnMin=10 EnMin= -4237.18470116064     IErMin=10 ErrMin= 6.96D-06
 ErrMax= 6.96D-06  0.00D+00 EMaxC= 1.00D-01 BMatC= 2.36D-07 BMatP= 2.63D-06
 IDIUse=1 WtCom= 1.00D+00 WtEn= 0.00D+00
 Coeff-Com:  0.487D-04-0.346D-04-0.417D-03-0.598D-03-0.336D-02-0.112D-01
 Coeff-Com: -0.184D-02 0.700D-01 0.214D+00 0.733D+00
 Coeff:      0.487D-04-0.346D-04-0.417D-03-0.598D-03-0.336D-02-0.112D-01
 Coeff:     -0.184D-02 0.700D-01 0.214D+00 0.733D+00
 Gap=     0.163 Goal=   None    Shift=    0.000
 RMSDP=7.34D-07 MaxDP=1.25D-04 DE=-1.59D-06 OVMax= 8.86D-05

 Cycle  11  Pass 1  IDiag  1:
 RMSU=  3.67D-07    CP:  9.62D-01  1.30D-02  9.14D-01  7.80D-01  7.96D-01
                    CP:  9.43D-01  7.53D-01  1.21D+00  1.00D+00  9.62D-01
 E= -4237.18470129095     Delta-E=       -0.000000130311 Rises=F Damp=F
 DIIS: error= 1.93D-06 at cycle  11 NSaved=  11.
 NSaved=11 IEnMin=11 EnMin= -4237.18470129095     IErMin=11 ErrMin= 1.93D-06
 ErrMax= 1.93D-06  0.00D+00 EMaxC= 1.00D-01 BMatC= 3.27D-08 BMatP= 2.36D-07
 IDIUse=1 WtCom= 1.00D+00 WtEn= 0.00D+00
 Coeff-Com:  0.906D-05 0.962D-05-0.624D-04 0.190D-03-0.164D-02-0.800D-02
 Coeff-Com: -0.891D-02-0.619D-02 0.478D-01 0.386D+00 0.591D+00
 Coeff:      0.906D-05 0.962D-05-0.624D-04 0.190D-03-0.164D-02-0.800D-02
 Coeff:     -0.891D-02-0.619D-02 0.478D-01 0.386D+00 0.591D+00
 Gap=     0.163 Goal=   None    Shift=    0.000
 RMSDP=2.21D-07 MaxDP=3.94D-05 DE=-1.30D-07 OVMax= 2.85D-05

 Cycle  12  Pass 1  IDiag  1:
 RMSU=  1.03D-07    CP:  9.62D-01  1.30D-02  9.14D-01  7.80D-01  7.96D-01
                    CP:  9.45D-01  7.56D-01  1.22D+00  1.01D+00  1.08D+00
                    CP:  9.98D-01
 E= -4237.18470131508     Delta-E=       -0.000000024134 Rises=F Damp=F
 DIIS: error= 6.19D-07 at cycle  12 NSaved=  12.
 NSaved=12 IEnMin=12 EnMin= -4237.18470131508     IErMin=12 ErrMin= 6.19D-07
 ErrMax= 6.19D-07  0.00D+00 EMaxC= 1.00D-01 BMatC= 1.70D-09 BMatP= 3.27D-08
 IDIUse=1 WtCom= 1.00D+00 WtEn= 0.00D+00
 Coeff-Com: -0.773D-06 0.808D-05 0.152D-04 0.160D-03-0.466D-03-0.280D-02
 Coeff-Com: -0.424D-02-0.950D-02 0.280D-02 0.115D+00 0.295D+00 0.603D+00
 Coeff:     -0.773D-06 0.808D-05 0.152D-04 0.160D-03-0.466D-03-0.280D-02
 Coeff:     -0.424D-02-0.950D-02 0.280D-02 0.115D+00 0.295D+00 0.603D+00
 Gap=     0.163 Goal=   None    Shift=    0.000
 RMSDP=6.41D-08 MaxDP=1.42D-05 DE=-2.41D-08 OVMax= 8.45D-06

 Cycle  13  Pass 1  IDiag  1:
 RMSU=  3.36D-08    CP:  9.62D-01  1.30D-02  9.14D-01  7.80D-01  7.96D-01
                    CP:  9.45D-01  7.56D-01  1.23D+00  1.02D+00  1.10D+00
                    CP:  1.08D+00  1.13D+00
 E= -4237.18470131643     Delta-E=       -0.000000001352 Rises=F Damp=F
 DIIS: error= 2.61D-07 at cycle  13 NSaved=  13.
 NSaved=13 IEnMin=13 EnMin= -4237.18470131643     IErMin=13 ErrMin= 2.61D-07
 ErrMax= 2.61D-07  0.00D+00 EMaxC= 1.00D-01 BMatC= 3.63D-10 BMatP= 1.70D-09
 IDIUse=1 WtCom= 1.00D+00 WtEn= 0.00D+00
 Coeff-Com: -0.860D-06 0.336D-05 0.101D-04 0.126D-04 0.920D-05-0.107D-03
 Coeff-Com: -0.557D-03-0.251D-02-0.300D-02-0.403D-03 0.489D-01 0.233D+00
 Coeff-Com:  0.725D+00
 Coeff:     -0.860D-06 0.336D-05 0.101D-04 0.126D-04 0.920D-05-0.107D-03
 Coeff:     -0.557D-03-0.251D-02-0.300D-02-0.403D-03 0.489D-01 0.233D+00
 Coeff:      0.725D+00
 Gap=     0.163 Goal=   None    Shift=    0.000
 RMSDP=3.07D-08 MaxDP=7.04D-06 DE=-1.35D-09 OVMax= 2.85D-06

 Cycle  14  Pass 1  IDiag  1:
 RMSU=  1.04D-08    CP:  9.62D-01  1.30D-02  9.14D-01  7.80D-01  7.96D-01
                    CP:  9.45D-01  7.56D-01  1.23D+00  1.02D+00  1.10D+00
                    CP:  1.12D+00  1.24D+00  1.06D+00
 E= -4237.18470131654     Delta-E=       -0.000000000107 Rises=F Damp=F
 DIIS: error= 7.28D-08 at cycle  14 NSaved=  14.
 NSaved=14 IEnMin=14 EnMin= -4237.18470131654     IErMin=14 ErrMin= 7.28D-08
 ErrMax= 7.28D-08  0.00D+00 EMaxC= 1.00D-01 BMatC= 3.81D-11 BMatP= 3.63D-10
 IDIUse=1 WtCom= 1.00D+00 WtEn= 0.00D+00
 Coeff-Com: -0.164D-06 0.690D-06 0.512D-05-0.145D-04 0.614D-04 0.264D-03
 Coeff-Com:  0.143D-03-0.532D-03-0.207D-02-0.135D-01-0.603D-02 0.611D-01
 Coeff-Com:  0.395D+00 0.566D+00
 Coeff:     -0.164D-06 0.690D-06 0.512D-05-0.145D-04 0.614D-04 0.264D-03
 Coeff:      0.143D-03-0.532D-03-0.207D-02-0.135D-01-0.603D-02 0.611D-01
 Coeff:      0.395D+00 0.566D+00
 Gap=     0.163 Goal=   None    Shift=    0.000
 RMSDP=9.41D-09 MaxDP=2.17D-06 DE=-1.07D-10 OVMax= 1.33D-06

 Cycle  15  Pass 1  IDiag  1:
 RMSU=  3.23D-09    CP:  9.62D-01  1.30D-02  9.14D-01  7.80D-01  7.96D-01
                    CP:  9.45D-01  7.56D-01  1.23D+00  1.02D+00  1.11D+00
                    CP:  1.14D+00  1.28D+00  1.15D+00  1.05D+00
 E= -4237.18470131674     Delta-E=       -0.000000000203 Rises=F Damp=F
 DIIS: error= 1.84D-08 at cycle  15 NSaved=  15.
 NSaved=15 IEnMin=15 EnMin= -4237.18470131674     IErMin=15 ErrMin= 1.84D-08
 ErrMax= 1.84D-08  0.00D+00 EMaxC= 1.00D-01 BMatC= 2.73D-12 BMatP= 3.81D-11
 IDIUse=1 WtCom= 1.00D+00 WtEn= 0.00D+00
 Coeff-Com:  0.422D-07-0.652D-07 0.820D-06-0.835D-05 0.244D-04 0.120D-03
 Coeff-Com:  0.125D-03 0.755D-04-0.386D-03-0.505D-02-0.925D-02-0.773D-02
 Coeff-Com:  0.641D-01 0.238D+00 0.720D+00
 Coeff:      0.422D-07-0.652D-07 0.820D-06-0.835D-05 0.244D-04 0.120D-03
 Coeff:      0.125D-03 0.755D-04-0.386D-03-0.505D-02-0.925D-02-0.773D-02
 Coeff:      0.641D-01 0.238D+00 0.720D+00
 Gap=     0.163 Goal=   None    Shift=    0.000
 RMSDP=3.72D-09 MaxDP=8.56D-07 DE=-2.03D-10 OVMax= 3.42D-07

 Error on total polarization charges =  0.10067
 SCF Done:  E(RPBE1PBE) =  -4237.18470132     A.U. after   15 cycles
            NFock= 15  Conv=0.37D-08     -V/T= 2.0487
 KE= 4.040342929510D+03 PE=-2.453133237932D+04 EE= 8.958345989138D+03
 SMD-CDS (non-electrostatic) energy       (kcal/mol) =       3.06
 (included in total energy above)
 Leave Link  502 at Wed Apr  3 11:02:07 2024, MaxMem= 10737418240 cpu:           77172.3 elap:            1951.9
 (Enter /lustre/home/acct-chenxiangyang/chenxiangyang-user1/software/g16/l601.exe)
 Copying SCF densities to generalized density rwf, IOpCl= 0 IROHF=0.

 **********************************************************************

            Population analysis using the SCF density.

 **********************************************************************

 Orbital symmetries:
       Occupied  (A) (A) (A) (A) (A) (A) (A) (A) (A) (A) (A) (A)
                 (A) (A) (A) (A) (A) (A) (A) (A) (A) (A) (A) (A)
                 (A) (A) (A) (A) (A) (A) (A) (A) (A) (A) (A) (A)
                 (A) (A) (A) (A) (A) (A) (A) (A) (A) (A) (A) (A)
                 (A) (A) (A) (A) (A) (A) (A) (A) (A) (A) (A) (A)
                 (A) (A) (A) (A) (A) (A) (A) (A) (A) (A) (A) (A)
                 (A) (A) (A) (A) (A) (A) (A) (A) (A) (A) (A) (A)
                 (A) (A) (A) (A) (A) (A) (A) (A) (A) (A) (A) (A)
                 (A) (A) (A) (A) (A) (A) (A) (A) (A) (A) (A) (A)
                 (A) (A) (A) (A) (A) (A) (A) (A) (A) (A) (A) (A)
                 (A) (A) (A) (A) (A) (A) (A) (A) (A) (A) (A) (A)
                 (A) (A) (A) (A) (A) (A) (A) (A) (A) (A) (A) (A)
                 (A) (A) (A) (A) (A) (A) (A) (A) (A) (A) (A) (A)
                 (A) (A) (A) (A) (A) (A) (A) (A) (A) (A) (A) (A)
                 (A) (A) (A) (A) (A) (A) (A) (A) (A) (A) (A) (A)
       Virtual   (A) (A) (A) (A) (A) (A) (A) (A) (A) (A) (A) (A)
                 (A) (A) (A) (A) (A) (A) (A) (A) (A) (A) (A) (A)
                 (A) (A) (A) (A) (A) (A) (A) (A) (A) (A) (A) (A)
                 (A) (A) (A) (A) (A) (A) (A) (A) (A) (A) (A) (A)
                 (A) (A) (A) (A) (A) (A) (A) (A) (A) (A) (A) (A)
                 (A) (A) (A) (A) (A) (A) (A) (A) (A) (A) (A) (A)
                 (A) (A) (A) (A) (A) (A) (A) (A) (A) (A) (A) (A)
                 (A) (A) (A) (A) (A) (A) (A) (A) (A) (A) (A) (A)
                 (A) (A) (A) (A) (A) (A) (A) (A) (A) (A) (A) (A)
                 (A) (A) (A) (A) (A) (A) (A) (A) (A) (A) (A) (A)
                 (A) (A) (A) (A) (A) (A) (A) (A) (A) (A) (A) (A)
                 (A) (A) (A) (A) (A) (A) (A) (A) (A) (A) (A) (A)
                 (A) (A) (A) (A) (A) (A) (A) (A) (A) (A) (A) (A)
                 (A) (A) (A) (A) (A) (A) (A) (A) (A) (A) (A) (A)
                 (A) (A) (A) (A) (A) (A) (A) (A) (A) (A) (A) (A)
                 (A) (A) (A) (A) (A) (A) (A) (A) (A) (A) (A) (A)
                 (A) (A) (A) (A) (A) (A) (A) (A) (A) (A) (A) (A)
                 (A) (A) (A) (A) (A) (A) (A) (A) (A) (A) (A) (A)
                 (A) (A) (A) (A) (A) (A) (A) (A) (A) (A) (A) (A)
                 (A) (A) (A) (A) (A) (A) (A) (A) (A) (A) (A) (A)
                 (A) (A) (A) (A) (A) (A) (A) (A) (A) (A) (A) (A)
                 (A) (A) (A) (A) (A) (A) (A) (A) (A) (A) (A) (A)
                 (A) (A) (A) (A) (A) (A) (A) (A) (A) (A) (A) (A)
                 (A) (A) (A) (A) (A) (A) (A) (A) (A) (A) (A) (A)
                 (A) (A) (A) (A) (A) (A) (A) (A) (A) (A) (A) (A)
                 (A) (A) (A) (A) (A) (A) (A) (A) (A) (A) (A) (A)
                 (A) (A) (A) (A) (A) (A) (A) (A) (A) (A) (A) (A)
                 (A) (A) (A) (A) (A) (A) (A) (A) (A) (A) (A) (A)
                 (A) (A) (A) (A) (A) (A) (A) (A) (A) (A) (A) (A)
                 (A) (A) (A) (A) (A) (A) (A) (A) (A) (A) (A) (A)
                 (A) (A) (A) (A) (A) (A) (A) (A) (A) (A) (A) (A)
                 (A) (A) (A) (A) (A) (A) (A) (A) (A) (A) (A) (A)
                 (A) (A) (A) (A) (A) (A) (A) (A) (A) (A) (A) (A)
                 (A) (A) (A) (A) (A) (A) (A) (A) (A) (A) (A) (A)
                 (A) (A) (A) (A) (A) (A) (A) (A) (A) (A) (A) (A)
                 (A) (A) (A) (A) (A) (A) (A) (A) (A) (A) (A) (A)
                 (A) (A) (A) (A) (A) (A) (A) (A) (A) (A) (A) (A)
                 (A) (A) (A) (A) (A) (A) (A) (A) (A) (A) (A) (A)
                 (A) (A) (A) (A) (A) (A) (A) (A) (A) (A) (A) (A)
                 (A) (A) (A) (A) (A) (A) (A) (A) (A) (A) (A) (A)
                 (A) (A) (A) (A) (A) (A) (A) (A) (A) (A) (A) (A)
                 (A) (A) (A) (A) (A) (A) (A) (A) (A) (A) (A) (A)
                 (A) (A) (A) (A) (A) (A) (A) (A) (A) (A) (A) (A)
                 (A) (A) (A) (A) (A) (A) (A) (A) (A) (A) (A) (A)
                 (A) (A) (A) (A) (A) (A) (A) (A) (A) (A) (A) (A)
                 (A) (A) (A) (A) (A) (A) (A) (A) (A) (A) (A) (A)
                 (A) (A) (A) (A) (A) (A) (A) (A) (A) (A) (A) (A)
                 (A) (A) (A) (A) (A) (A) (A) (A) (A) (A) (A) (A)
                 (A) (A) (A) (A) (A) (A) (A) (A) (A) (A) (A) (A)
                 (A) (A) (A) (A) (A) (A) (A) (A) (A) (A) (A) (A)
                 (A) (A) (A) (A) (A) (A) (A) (A) (A) (A) (A) (A)
                 (A) (A) (A) (A) (A) (A) (A) (A) (A) (A) (A) (A)
                 (A) (A) (A) (A) (A) (A) (A) (A) (A) (A) (A) (A)
                 (A) (A) (A) (A) (A) (A) (A) (A) (A) (A) (A) (A)
                 (A) (A) (A) (A) (A) (A) (A) (A) (A) (A) (A) (A)
                 (A) (A) (A) (A) (A) (A) (A) (A) (A) (A) (A) (A)
                 (A) (A) (A) (A) (A) (A) (A) (A) (A) (A) (A) (A)
                 (A) (A) (A) (A) (A) (A) (A) (A) (A) (A) (A) (A)
                 (A) (A) (A) (A) (A) (A) (A) (A) (A) (A) (A) (A)
                 (A) (A) (A) (A) (A) (A) (A) (A) (A) (A) (A) (A)
                 (A) (A) (A) (A) (A) (A) (A) (A) (A) (A) (A) (A)
                 (A) (A) (A) (A) (A) (A) (A) (A) (A) (A) (A) (A)
                 (A) (A) (A) (A) (A) (A) (A) (A) (A) (A) (A) (A)
                 (A) (A) (A) (A) (A) (A) (A) (A) (A) (A) (A) (A)
                 (A) (A) (A) (A) (A) (A) (A) (A) (A) (A) (A) (A)
                 (A) (A) (A) (A) (A) (A) (A) (A) (A) (A) (A) (A)
                 (A) (A) (A) (A) (A) (A) (A) (A) (A) (A) (A) (A)
                 (A) (A) (A) (A) (A) (A) (A) (A) (A) (A) (A) (A)
                 (A) (A) (A) (A) (A) (A) (A) (A) (A) (A) (A) (A)
                 (A) (A) (A) (A) (A) (A) (A) (A) (A) (A) (A) (A)
                 (A) (A) (A) (A) (A) (A) (A) (A) (A) (A) (A) (A)
                 (A) (A) (A) (A) (A) (A) (A) (A) (A) (A) (A) (A)
                 (A) (A) (A) (A) (A) (A) (A) (A) (A) (A) (A) (A)
                 (A) (A) (A) (A) (A) (A) (A) (A) (A) (A) (A) (A)
                 (A) (A) (A) (A) (A) (A) (A) (A) (A) (A) (A) (A)
                 (A) (A) (A) (A) (A) (A) (A) (A) (A) (A) (A) (A)
                 (A) (A) (A) (A) (A) (A) (A) (A) (A) (A) (A) (A)
                 (A) (A) (A) (A) (A) (A) (A) (A) (A) (A) (A) (A)
                 (A) (A) (A) (A) (A) (A) (A) (A) (A) (A) (A) (A)
                 (A) (A) (A) (A) (A) (A) (A) (A) (A) (A) (A) (A)
                 (A) (A) (A) (A) (A) (A) (A) (A) (A) (A) (A) (A)
                 (A) (A) (A) (A) (A) (A) (A) (A) (A) (A) (A) (A)
                 (A) (A) (A) (A) (A) (A) (A) (A) (A) (A) (A) (A)
                 (A) (A) (A) (A) (A) (A) (A) (A) (A) (A) (A) (A)
                 (A) (A) (A) (A) (A) (A) (A) (A) (A) (A) (A) (A)
                 (A) (A) (A) (A) (A) (A) (A) (A) (A) (A) (A) (A)
                 (A) (A) (A) (A) (A) (A) (A) (A) (A) (A) (A) (A)
                 (A) (A) (A) (A) (A) (A) (A) (A) (A) (A) (A) (A)
                 (A) (A) (A) (A) (A) (A) (A) (A) (A) (A) (A) (A)
                 (A) (A) (A) (A) (A) (A) (A) (A) (A) (A) (A) (A)
                 (A) (A) (A) (A) (A) (A) (A) (A) (A) (A) (A) (A)
                 (A) (A) (A) (A) (A) (A) (A) (A) (A) (A) (A) (A)
                 (A) (A) (A) (A) (A) (A) (A) (A) (A) (A) (A) (A)
                 (A) (A) (A) (A) (A) (A) (A) (A) (A) (A) (A) (A)
                 (A) (A) (A) (A) (A) (A) (A) (A) (A) (A) (A) (A)
                 (A) (A) (A) (A) (A) (A) (A) (A) (A) (A) (A) (A)
                 (A) (A) (A) (A) (A) (A) (A) (A) (A) (A) (A) (A)
                 (A) (A) (A) (A) (A) (A) (A) (A) (A) (A) (A) (A)
                 (A) (A) (A) (A) (A) (A) (A) (A) (A) (A) (A) (A)
                 (A) (A) (A) (A) (A) (A) (A) (A) (A) (A) (A) (A)
                 (A) (A) (A) (A) (A) (A) (A) (A) (A) (A) (A) (A)
                 (A) (A) (A) (A) (A) (A) (A) (A) (A) (A) (A) (A)
                 (A) (A) (A) (A) (A) (A) (A) (A) (A) (A) (A) (A)
                 (A) (A) (A) (A) (A) (A) (A) (A) (A) (A) (A) (A)
                 (A) (A) (A) (A) (A) (A) (A) (A) (A) (A) (A) (A)
                 (A) (A) (A) (A) (A) (A) (A) (A) (A) (A) (A) (A)
                 (A) (A) (A) (A) (A) (A) (A) (A) (A) (A) (A) (A)
                 (A) (A) (A) (A) (A) (A) (A) (A) (A) (A) (A) (A)
                 (A) (A) (A) (A) (A) (A) (A) (A) (A) (A) (A) (A)
                 (A) (A) (A) (A) (A) (A) (A) (A) (A) (A) (A) (A)
                 (A) (A) (A) (A) (A) (A) (A) (A) (A) (A) (A) (A)
                 (A) (A) (A) (A) (A) (A) (A) (A) (A) (A) (A) (A)
                 (A) (A) (A) (A) (A) (A) (A) (A) (A) (A) (A) (A)
                 (A) (A) (A) (A) (A) (A) (A) (A) (A) (A) (A) (A)
                 (A) (A) (A) (A) (A) (A) (A) (A) (A) (A) (A) (A)
                 (A) (A) (A) (A) (A) (A) (A) (A) (A) (A) (A) (A)
                 (A) (A) (A) (A) (A) (A) (A) (A) (A) (A) (A) (A)
                 (A) (A) (A) (A) (A) (A) (A) (A) (A) (A) (A) (A)
                 (A) (A) (A) (A) (A) (A) (A) (A) (A) (A) (A) (A)
                 (A) (A) (A) (A) (A) (A) (A) (A) (A) (A) (A) (A)
                 (A) (A) (A) (A) (A) (A) (A) (A) (A) (A) (A) (A)
                 (A) (A) (A) (A) (A) (A) (A) (A) (A) (A) (A) (A)
                 (A) (A) (A) (A) (A) (A) (A) (A) (A) (A) (A) (A)
                 (A) (A) (A) (A) (A) (A) (A) (A) (A) (A) (A) (A)
                 (A) (A) (A) (A) (A) (A) (A) (A) (A) (A) (A) (A)
                 (A) (A) (A) (A) (A) (A) (A) (A) (A) (A) (A) (A)
                 (A) (A) (A) (A) (A) (A) (A) (A) (A) (A) (A) (A)
                 (A) (A) (A) (A) (A) (A) (A) (A) (A) (A) (A) (A)
                 (A) (A) (A) (A) (A) (A) (A) (A) (A) (A) (A) (A)
                 (A) (A) (A) (A) (A) (A) (A) (A) (A) (A) (A) (A)
                 (A) (A) (A) (A) (A) (A) (A) (A) (A) (A) (A) (A)
                 (A) (A) (A) (A) (A) (A) (A) (A) (A) (A) (A) (A)
                 (A) (A) (A) (A) (A) (A) (A) (A) (A) (A) (A) (A)
                 (A) (A) (A) (A) (A) (A) (A) (A) (A) (A) (A) (A)
                 (A) (A) (A) (A) (A) (A) (A) (A) (A) (A) (A) (A)
                 (A) (A) (A) (A) (A) (A) (A) (A) (A) (A) (A) (A)
                 (A) (A) (A) (A) (A) (A) (A) (A) (A) (A) (A) (A)
                 (A) (A) (A) (A) (A) (A) (A) (A) (A) (A) (A) (A)
                 (A) (A) (A) (A) (A) (A) (A) (A) (A) (A) (A) (A)
                 (A) (A) (A) (A) (A) (A) (A) (A) (A) (A) (A) (A)
                 (A) (A) (A) (A) (A) (A) (A) (A) (A) (A) (A) (A)
                 (A) (A) (A) (A) (A) (A) (A) (A) (A) (A) (A) (A)
                 (A) (A)
 The electronic state is 1-A.
 Alpha  occ. eigenvalues -- -323.31443 -77.23137 -77.23127 -38.91444 -34.08127
 Alpha  occ. eigenvalues --  -34.08114 -34.08056 -19.23666 -19.23662 -10.29201
 Alpha  occ. eigenvalues --  -10.29192 -10.26213 -10.26210 -10.25100 -10.25076
 Alpha  occ. eigenvalues --  -10.24853 -10.24820 -10.24681 -10.24671 -10.24616
 Alpha  occ. eigenvalues --  -10.24547 -10.23582 -10.23569 -10.23516 -10.23514
 Alpha  occ. eigenvalues --  -10.23480 -10.23459 -10.23452 -10.23448 -10.23269
 Alpha  occ. eigenvalues --  -10.23233 -10.23220 -10.23211 -10.23150 -10.23139
 Alpha  occ. eigenvalues --  -10.23109 -10.23101 -10.23089 -10.23079 -10.23071
 Alpha  occ. eigenvalues --  -10.23052 -10.23035 -10.23020 -10.22698 -10.22693
 Alpha  occ. eigenvalues --  -10.22651 -10.22644  -6.84487  -6.62582  -6.62581
 Alpha  occ. eigenvalues --   -4.85332  -4.85153  -4.85105  -4.76178  -4.76178
 Alpha  occ. eigenvalues --   -4.76167  -4.76167  -4.75823  -4.75822  -4.33179
 Alpha  occ. eigenvalues --   -2.81114  -2.80982  -2.80684  -1.88096  -1.88018
 Alpha  occ. eigenvalues --   -1.87977  -1.87817  -1.87815  -1.07885  -1.07386
 Alpha  occ. eigenvalues --   -0.89876  -0.88891  -0.88592  -0.88212  -0.88201
 Alpha  occ. eigenvalues --   -0.87585  -0.81106  -0.79982  -0.79862  -0.77389
 Alpha  occ. eigenvalues --   -0.77381  -0.77279  -0.77255  -0.76903  -0.76857
 Alpha  occ. eigenvalues --   -0.76799  -0.76794  -0.75721  -0.71292  -0.70882
 Alpha  occ. eigenvalues --   -0.68319  -0.67399  -0.65595  -0.64504  -0.63030
 Alpha  occ. eigenvalues --   -0.62972  -0.62623  -0.62495  -0.61937  -0.61845
 Alpha  occ. eigenvalues --   -0.61306  -0.61159  -0.60156  -0.57964  -0.57477
 Alpha  occ. eigenvalues --   -0.54688  -0.53602  -0.53486  -0.53301  -0.51747
 Alpha  occ. eigenvalues --   -0.51298  -0.50539  -0.50042  -0.49942  -0.47930
 Alpha  occ. eigenvalues --   -0.47513  -0.47313  -0.47175  -0.47029  -0.46980
 Alpha  occ. eigenvalues --   -0.46745  -0.46625  -0.46563  -0.46251  -0.46090
 Alpha  occ. eigenvalues --   -0.44683  -0.43785  -0.43729  -0.43592  -0.43549
 Alpha  occ. eigenvalues --   -0.43367  -0.43319  -0.42736  -0.42322  -0.41950
 Alpha  occ. eigenvalues --   -0.41863  -0.40476  -0.40083  -0.39918  -0.39444
 Alpha  occ. eigenvalues --   -0.39094  -0.38849  -0.38438  -0.38365  -0.37765
 Alpha  occ. eigenvalues --   -0.37681  -0.36032  -0.35969  -0.35902  -0.35820
 Alpha  occ. eigenvalues --   -0.35411  -0.35154  -0.35073  -0.34624  -0.34007
 Alpha  occ. eigenvalues --   -0.33920  -0.33453  -0.33313  -0.32699  -0.32379
 Alpha  occ. eigenvalues --   -0.30361  -0.28950  -0.28359  -0.27967  -0.27768
 Alpha  occ. eigenvalues --   -0.27709  -0.27387  -0.27322  -0.27165  -0.27076
 Alpha  occ. eigenvalues --   -0.27039  -0.26865  -0.26596  -0.25523  -0.25352
 Alpha  occ. eigenvalues --   -0.24313  -0.24100  -0.23566  -0.23226  -0.20409
 Alpha virt. eigenvalues --   -0.04115  -0.03785  -0.03272  -0.03217  -0.02346
 Alpha virt. eigenvalues --   -0.01865  -0.01603  -0.01467  -0.01180  -0.00937
 Alpha virt. eigenvalues --   -0.00273  -0.00132   0.01210   0.03496   0.04981
 Alpha virt. eigenvalues --    0.06074   0.06130   0.06554   0.06745   0.07096
 Alpha virt. eigenvalues --    0.07213   0.07679   0.08042   0.08196   0.08605
 Alpha virt. eigenvalues --    0.09062   0.09233   0.09456   0.09935   0.10176
 Alpha virt. eigenvalues --    0.10264   0.10412   0.10745   0.10852   0.11254
 Alpha virt. eigenvalues --    0.11481   0.11815   0.11890   0.12008   0.12385
 Alpha virt. eigenvalues --    0.12573   0.12790   0.12886   0.12973   0.13397
 Alpha virt. eigenvalues --    0.13526   0.13618   0.13630   0.13927   0.14155
 Alpha virt. eigenvalues --    0.14229   0.14561   0.14848   0.15118   0.15198
 Alpha virt. eigenvalues --    0.15364   0.15405   0.15744   0.15810   0.15939
 Alpha virt. eigenvalues --    0.16171   0.17135   0.17342   0.17437   0.17758
 Alpha virt. eigenvalues --    0.18289   0.19067   0.19141   0.19426   0.19643
 Alpha virt. eigenvalues --    0.20101   0.20289   0.20504   0.20802   0.21019
 Alpha virt. eigenvalues --    0.21266   0.21633   0.21744   0.21769   0.22108
 Alpha virt. eigenvalues --    0.22452   0.22548   0.22637   0.22679   0.22975
 Alpha virt. eigenvalues --    0.23217   0.23491   0.23763   0.24004   0.24096
 Alpha virt. eigenvalues --    0.24149   0.24662   0.24818   0.25158   0.25313
 Alpha virt. eigenvalues --    0.25378   0.25508   0.25785   0.26085   0.26325
 Alpha virt. eigenvalues --    0.26444   0.26545   0.26923   0.26977   0.27235
 Alpha virt. eigenvalues --    0.27338   0.27595   0.27922   0.28218   0.28413
 Alpha virt. eigenvalues --    0.28799   0.29022   0.29073   0.29183   0.29347
 Alpha virt. eigenvalues --    0.29531   0.29587   0.30066   0.30417   0.30602
 Alpha virt. eigenvalues --    0.31033   0.31089   0.31228   0.31560   0.31687
 Alpha virt. eigenvalues --    0.32139   0.32399   0.32749   0.33210   0.33391
 Alpha virt. eigenvalues --    0.33601   0.33729   0.33889   0.33927   0.34234
 Alpha virt. eigenvalues --    0.34618   0.35098   0.35396   0.35623   0.35923
 Alpha virt. eigenvalues --    0.36161   0.36280   0.36579   0.36811   0.37152
 Alpha virt. eigenvalues --    0.37195   0.37298   0.37376   0.38327   0.38614
 Alpha virt. eigenvalues --    0.38661   0.38885   0.38980   0.39270   0.39629
 Alpha virt. eigenvalues --    0.39748   0.39852   0.40174   0.40272   0.40555
 Alpha virt. eigenvalues --    0.40834   0.40973   0.41167   0.41363   0.41516
 Alpha virt. eigenvalues --    0.41669   0.41954   0.42242   0.42514   0.42573
 Alpha virt. eigenvalues --    0.42761   0.42869   0.42984   0.43266   0.43435
 Alpha virt. eigenvalues --    0.43533   0.43795   0.44086   0.44173   0.44431
 Alpha virt. eigenvalues --    0.44533   0.44917   0.45008   0.45291   0.45477
 Alpha virt. eigenvalues --    0.45553   0.45646   0.45781   0.45951   0.46139
 Alpha virt. eigenvalues --    0.46183   0.46484   0.46565   0.46748   0.46764
 Alpha virt. eigenvalues --    0.47216   0.47509   0.47618   0.47906   0.48035
 Alpha virt. eigenvalues --    0.48293   0.48694   0.48817   0.49048   0.49227
 Alpha virt. eigenvalues --    0.49433   0.49599   0.49840   0.50184   0.50433
 Alpha virt. eigenvalues --    0.50552   0.50660   0.51058   0.51092   0.51332
 Alpha virt. eigenvalues --    0.51414   0.51652   0.51745   0.52073   0.52298
 Alpha virt. eigenvalues --    0.52660   0.52849   0.53157   0.53324   0.53461
 Alpha virt. eigenvalues --    0.53584   0.54062   0.54073   0.54589   0.54920
 Alpha virt. eigenvalues --    0.55492   0.55545   0.56037   0.56542   0.56619
 Alpha virt. eigenvalues --    0.56994   0.57094   0.57572   0.57809   0.58047
 Alpha virt. eigenvalues --    0.58314   0.58731   0.58895   0.59066   0.59893
 Alpha virt. eigenvalues --    0.60003   0.60381   0.60591   0.61151   0.61688
 Alpha virt. eigenvalues --    0.61931   0.62013   0.62375   0.62646   0.62936
 Alpha virt. eigenvalues --    0.63257   0.63358   0.63619   0.64112   0.64288
 Alpha virt. eigenvalues --    0.64675   0.64867   0.65054   0.65407   0.65615
 Alpha virt. eigenvalues --    0.65910   0.66264   0.66373   0.66550   0.67007
 Alpha virt. eigenvalues --    0.67140   0.67918   0.68012   0.68188   0.68539
 Alpha virt. eigenvalues --    0.68630   0.69168   0.69375   0.69486   0.69757
 Alpha virt. eigenvalues --    0.70073   0.70340   0.70570   0.70649   0.71075
 Alpha virt. eigenvalues --    0.71222   0.71421   0.71672   0.71842   0.71970
 Alpha virt. eigenvalues --    0.72086   0.72747   0.72956   0.73189   0.73331
 Alpha virt. eigenvalues --    0.73547   0.73837   0.74001   0.74128   0.74580
 Alpha virt. eigenvalues --    0.74865   0.75036   0.75438   0.75578   0.75737
 Alpha virt. eigenvalues --    0.76096   0.76245   0.76468   0.76616   0.76981
 Alpha virt. eigenvalues --    0.77296   0.77425   0.77635   0.77871   0.78076
 Alpha virt. eigenvalues --    0.78167   0.79013   0.79740   0.80010   0.80353
 Alpha virt. eigenvalues --    0.80555   0.80670   0.80790   0.80946   0.81098
 Alpha virt. eigenvalues --    0.81689   0.81737   0.81766   0.82122   0.82470
 Alpha virt. eigenvalues --    0.82522   0.83608   0.83798   0.84038   0.84390
 Alpha virt. eigenvalues --    0.84758   0.85012   0.85381   0.85769   0.86075
 Alpha virt. eigenvalues --    0.86376   0.86681   0.86961   0.87043   0.87414
 Alpha virt. eigenvalues --    0.87693   0.88103   0.88475   0.88652   0.88985
 Alpha virt. eigenvalues --    0.89661   0.89819   0.90107   0.90406   0.90755
 Alpha virt. eigenvalues --    0.90816   0.91150   0.91329   0.91769   0.91970
 Alpha virt. eigenvalues --    0.92113   0.92532   0.92674   0.92854   0.93125
 Alpha virt. eigenvalues --    0.93192   0.93693   0.94018   0.94338   0.94603
 Alpha virt. eigenvalues --    0.94810   0.94881   0.94994   0.95810   0.96055
 Alpha virt. eigenvalues --    0.96427   0.96679   0.96854   0.97080   0.97251
 Alpha virt. eigenvalues --    0.97434   0.98063   0.98135   0.98240   0.98440
 Alpha virt. eigenvalues --    0.98674   0.99193   0.99347   0.99559   0.99874
 Alpha virt. eigenvalues --    1.00143   1.00633   1.00672   1.00978   1.01170
 Alpha virt. eigenvalues --    1.01731   1.02022   1.02381   1.02662   1.02721
 Alpha virt. eigenvalues --    1.03202   1.03358   1.03528   1.03914   1.04116
 Alpha virt. eigenvalues --    1.04682   1.05304   1.05644   1.05725   1.06020
 Alpha virt. eigenvalues --    1.06261   1.06562   1.06864   1.07015   1.07649
 Alpha virt. eigenvalues --    1.07969   1.08298   1.08451   1.08832   1.09329
 Alpha virt. eigenvalues --    1.09525   1.09809   1.10267   1.10324   1.10554
 Alpha virt. eigenvalues --    1.11044   1.11183   1.11450   1.11634   1.11679
 Alpha virt. eigenvalues --    1.11835   1.12226   1.12444   1.12565   1.12900
 Alpha virt. eigenvalues --    1.13632   1.13731   1.14098   1.14389   1.14703
 Alpha virt. eigenvalues --    1.14923   1.15080   1.15370   1.15558   1.16270
 Alpha virt. eigenvalues --    1.16747   1.16872   1.17104   1.17370   1.17662
 Alpha virt. eigenvalues --    1.18054   1.18357   1.18584   1.18894   1.19215
 Alpha virt. eigenvalues --    1.19478   1.19665   1.19890   1.19990   1.20491
 Alpha virt. eigenvalues --    1.20762   1.21093   1.21332   1.21684   1.21986
 Alpha virt. eigenvalues --    1.22504   1.22823   1.23084   1.23108   1.23421
 Alpha virt. eigenvalues --    1.23663   1.24033   1.24186   1.24501   1.24582
 Alpha virt. eigenvalues --    1.25026   1.25537   1.25760   1.25856   1.26594
 Alpha virt. eigenvalues --    1.26934   1.27105   1.27405   1.27525   1.28097
 Alpha virt. eigenvalues --    1.28494   1.28662   1.29041   1.29340   1.29641
 Alpha virt. eigenvalues --    1.29819   1.29904   1.30549   1.30767   1.30922
 Alpha virt. eigenvalues --    1.31238   1.31412   1.31697   1.31960   1.32414
 Alpha virt. eigenvalues --    1.32497   1.32622   1.32685   1.32853   1.33202
 Alpha virt. eigenvalues --    1.33751   1.34328   1.34420   1.34540   1.34710
 Alpha virt. eigenvalues --    1.34916   1.34919   1.35239   1.35454   1.35739
 Alpha virt. eigenvalues --    1.36330   1.36556   1.36984   1.37533   1.37586
 Alpha virt. eigenvalues --    1.37955   1.38029   1.38365   1.38724   1.39293
 Alpha virt. eigenvalues --    1.39513   1.39839   1.40126   1.40408   1.40439
 Alpha virt. eigenvalues --    1.40975   1.41172   1.41298   1.41645   1.41800
 Alpha virt. eigenvalues --    1.42189   1.42617   1.42732   1.42857   1.43242
 Alpha virt. eigenvalues --    1.43388   1.43646   1.43772   1.44534   1.44760
 Alpha virt. eigenvalues --    1.45214   1.45281   1.45633   1.45827   1.46012
 Alpha virt. eigenvalues --    1.46482   1.46525   1.47133   1.47248   1.47371
 Alpha virt. eigenvalues --    1.48056   1.48228   1.48341   1.48677   1.48835
 Alpha virt. eigenvalues --    1.49381   1.49589   1.49714   1.50150   1.50539
 Alpha virt. eigenvalues --    1.51032   1.51060   1.51384   1.51634   1.51914
 Alpha virt. eigenvalues --    1.52394   1.52555   1.52822   1.53133   1.53406
 Alpha virt. eigenvalues --    1.53984   1.54220   1.54403   1.54543   1.55273
 Alpha virt. eigenvalues --    1.55386   1.55783   1.55979   1.56390   1.56793
 Alpha virt. eigenvalues --    1.57134   1.57173   1.57293   1.57573   1.58322
 Alpha virt. eigenvalues --    1.58494   1.58584   1.58971   1.59406   1.59890
 Alpha virt. eigenvalues --    1.60129   1.60223   1.60897   1.61023   1.61458
 Alpha virt. eigenvalues --    1.61754   1.61991   1.62437   1.62688   1.62934
 Alpha virt. eigenvalues --    1.63173   1.63263   1.63781   1.64139   1.64736
 Alpha virt. eigenvalues --    1.65118   1.65204   1.65239   1.65913   1.65936
 Alpha virt. eigenvalues --    1.66459   1.66937   1.67086   1.67312   1.67398
 Alpha virt. eigenvalues --    1.68148   1.68175   1.68872   1.69248   1.69448
 Alpha virt. eigenvalues --    1.69687   1.69951   1.70232   1.70779   1.70998
 Alpha virt. eigenvalues --    1.71189   1.71503   1.71651   1.72212   1.72550
 Alpha virt. eigenvalues --    1.72824   1.73192   1.73674   1.73930   1.74137
 Alpha virt. eigenvalues --    1.74164   1.74412   1.74742   1.75233   1.75523
 Alpha virt. eigenvalues --    1.75711   1.76492   1.76781   1.77084   1.77796
 Alpha virt. eigenvalues --    1.78078   1.78693   1.79345   1.79551   1.79966
 Alpha virt. eigenvalues --    1.80274   1.81410   1.81475   1.81858   1.82341
 Alpha virt. eigenvalues --    1.82898   1.83247   1.83643   1.84030   1.84284
 Alpha virt. eigenvalues --    1.84735   1.85065   1.85343   1.85658   1.86279
 Alpha virt. eigenvalues --    1.86363   1.86988   1.87441   1.87617   1.88060
 Alpha virt. eigenvalues --    1.88448   1.88979   1.89233   1.89972   1.90153
 Alpha virt. eigenvalues --    1.91183   1.91701   1.92315   1.92788   1.92873
 Alpha virt. eigenvalues --    1.93728   1.94164   1.94289   1.95172   1.95249
 Alpha virt. eigenvalues --    1.96463   1.96963   1.97341   1.98140   1.98242
 Alpha virt. eigenvalues --    1.98550   1.99205   1.99672   1.99734   2.00314
 Alpha virt. eigenvalues --    2.00578   2.01063   2.01373   2.01980   2.02486
 Alpha virt. eigenvalues --    2.02689   2.03039   2.03545   2.03849   2.04292
 Alpha virt. eigenvalues --    2.04492   2.04759   2.05251   2.06213   2.06557
 Alpha virt. eigenvalues --    2.06744   2.06987   2.07449   2.08252   2.08532
 Alpha virt. eigenvalues --    2.09004   2.09487   2.09990   2.10858   2.11043
 Alpha virt. eigenvalues --    2.11713   2.12141   2.12264   2.12712   2.12992
 Alpha virt. eigenvalues --    2.13219   2.13794   2.14209   2.14556   2.15679
 Alpha virt. eigenvalues --    2.16109   2.16573   2.17049   2.17620   2.17745
 Alpha virt. eigenvalues --    2.18647   2.19876   2.20293   2.20551   2.20874
 Alpha virt. eigenvalues --    2.21197   2.21877   2.22687   2.23097   2.23499
 Alpha virt. eigenvalues --    2.24101   2.24283   2.24620   2.25642   2.25722
 Alpha virt. eigenvalues --    2.26165   2.26291   2.27136   2.27206   2.29403
 Alpha virt. eigenvalues --    2.29721   2.29923   2.30095   2.30534   2.30786
 Alpha virt. eigenvalues --    2.31131   2.31889   2.32275   2.32687   2.33701
 Alpha virt. eigenvalues --    2.33815   2.35557   2.35722   2.36119   2.36639
 Alpha virt. eigenvalues --    2.36985   2.37449   2.37878   2.38269   2.38549
 Alpha virt. eigenvalues --    2.38677   2.39366   2.39559   2.39903   2.40487
 Alpha virt. eigenvalues --    2.41198   2.41444   2.41832   2.42484   2.43025
 Alpha virt. eigenvalues --    2.43458   2.43649   2.44333   2.45201   2.45534
 Alpha virt. eigenvalues --    2.46078   2.47676   2.48213   2.48771   2.48852
 Alpha virt. eigenvalues --    2.49288   2.49592   2.50087   2.50979   2.52564
 Alpha virt. eigenvalues --    2.52694   2.53694   2.54345   2.54564   2.54950
 Alpha virt. eigenvalues --    2.55960   2.56769   2.57417   2.57727   2.58421
 Alpha virt. eigenvalues --    2.59496   2.60090   2.60796   2.63114   2.63539
 Alpha virt. eigenvalues --    2.64433   2.65071   2.65439   2.65565   2.66082
 Alpha virt. eigenvalues --    2.66603   2.67242   2.67365   2.68220   2.68454
 Alpha virt. eigenvalues --    2.68630   2.68985   2.69866   2.69997   2.70577
 Alpha virt. eigenvalues --    2.71279   2.71492   2.71529   2.72344   2.72403
 Alpha virt. eigenvalues --    2.72705   2.72913   2.72958   2.73424   2.73772
 Alpha virt. eigenvalues --    2.73829   2.74022   2.74309   2.74656   2.74918
 Alpha virt. eigenvalues --    2.75249   2.75634   2.76320   2.76594   2.76724
 Alpha virt. eigenvalues --    2.76799   2.77078   2.77625   2.77895   2.78066
 Alpha virt. eigenvalues --    2.78505   2.79444   2.79575   2.79796   2.80185
 Alpha virt. eigenvalues --    2.80509   2.80670   2.81228   2.81530   2.81765
 Alpha virt. eigenvalues --    2.82477   2.82691   2.83247   2.83536   2.83663
 Alpha virt. eigenvalues --    2.83805   2.84061   2.84239   2.84551   2.85085
 Alpha virt. eigenvalues --    2.85325   2.85578   2.85787   2.86080   2.86234
 Alpha virt. eigenvalues --    2.87019   2.87288   2.88012   2.88064   2.88251
 Alpha virt. eigenvalues --    2.88694   2.89466   2.89727   2.90334   2.90788
 Alpha virt. eigenvalues --    2.91144   2.91446   2.91785   2.92073   2.92611
 Alpha virt. eigenvalues --    2.93594   2.93931   2.94089   2.94303   2.95106
 Alpha virt. eigenvalues --    2.95231   2.95447   2.96015   2.96091   2.96286
 Alpha virt. eigenvalues --    2.96697   2.96769   2.97211   2.97427   2.97664
 Alpha virt. eigenvalues --    2.98244   2.98432   2.98838   2.99359   2.99667
 Alpha virt. eigenvalues --    2.99881   3.00453   3.00844   3.01288   3.01367
 Alpha virt. eigenvalues --    3.02010   3.02324   3.02646   3.02718   3.03594
 Alpha virt. eigenvalues --    3.03679   3.03743   3.03875   3.04064   3.04273
 Alpha virt. eigenvalues --    3.04373   3.04696   3.05121   3.05272   3.05456
 Alpha virt. eigenvalues --    3.05685   3.06028   3.06457   3.06661   3.06841
 Alpha virt. eigenvalues --    3.07130   3.07250   3.07401   3.08001   3.08078
 Alpha virt. eigenvalues --    3.08360   3.08670   3.08768   3.09220   3.09271
 Alpha virt. eigenvalues --    3.09507   3.09640   3.09795   3.10379   3.10561
 Alpha virt. eigenvalues --    3.10956   3.11412   3.11499   3.11638   3.11775
 Alpha virt. eigenvalues --    3.12019   3.12198   3.12727   3.12822   3.13107
 Alpha virt. eigenvalues --    3.13265   3.13618   3.14232   3.14466   3.14592
 Alpha virt. eigenvalues --    3.14773   3.14902   3.15182   3.15320   3.15592
 Alpha virt. eigenvalues --    3.15778   3.16097   3.16371   3.16538   3.16905
 Alpha virt. eigenvalues --    3.17017   3.17282   3.17557   3.17758   3.18042
 Alpha virt. eigenvalues --    3.18197   3.18314   3.18597   3.19085   3.19234
 Alpha virt. eigenvalues --    3.19440   3.19893   3.20076   3.20384   3.20575
 Alpha virt. eigenvalues --    3.21039   3.21191   3.21321   3.21643   3.21962
 Alpha virt. eigenvalues --    3.21991   3.22800   3.23036   3.23350   3.23466
 Alpha virt. eigenvalues --    3.23600   3.23840   3.24189   3.24528   3.24913
 Alpha virt. eigenvalues --    3.24957   3.25023   3.25318   3.25481   3.25556
 Alpha virt. eigenvalues --    3.25794   3.26131   3.26391   3.26616   3.26815
 Alpha virt. eigenvalues --    3.27135   3.27216   3.27575   3.27846   3.27996
 Alpha virt. eigenvalues --    3.28608   3.29056   3.29236   3.29516   3.29760
 Alpha virt. eigenvalues --    3.30169   3.30495   3.30723   3.30887   3.31230
 Alpha virt. eigenvalues --    3.31293   3.32079   3.32363   3.32558   3.32716
 Alpha virt. eigenvalues --    3.32914   3.33448   3.33567   3.33624   3.34016
 Alpha virt. eigenvalues --    3.34261   3.34425   3.34805   3.35000   3.35268
 Alpha virt. eigenvalues --    3.35621   3.35899   3.36021   3.36541   3.36728
 Alpha virt. eigenvalues --    3.37008   3.37411   3.37597   3.37977   3.38414
 Alpha virt. eigenvalues --    3.38507   3.38703   3.38859   3.39091   3.39246
 Alpha virt. eigenvalues --    3.39606   3.39789   3.39927   3.40362   3.40597
 Alpha virt. eigenvalues --    3.41075   3.41576   3.41655   3.41857   3.42207
 Alpha virt. eigenvalues --    3.42789   3.42886   3.43378   3.43593   3.43767
 Alpha virt. eigenvalues --    3.44142   3.44510   3.44793   3.45396   3.45657
 Alpha virt. eigenvalues --    3.45791   3.46241   3.46367   3.46737   3.47042
 Alpha virt. eigenvalues --    3.47168   3.47355   3.47552   3.48007   3.48458
 Alpha virt. eigenvalues --    3.48746   3.48869   3.49041   3.49261   3.49362
 Alpha virt. eigenvalues --    3.49443   3.49629   3.50659   3.50910   3.51117
 Alpha virt. eigenvalues --    3.51587   3.51869   3.52391   3.52475   3.52614
 Alpha virt. eigenvalues --    3.52937   3.53159   3.53714   3.54039   3.54277
 Alpha virt. eigenvalues --    3.54622   3.54910   3.55270   3.55800   3.56150
 Alpha virt. eigenvalues --    3.56246   3.56547   3.56711   3.56927   3.57430
 Alpha virt. eigenvalues --    3.57818   3.57939   3.58169   3.58405   3.58585
 Alpha virt. eigenvalues --    3.59153   3.59472   3.59810   3.60150   3.60284
 Alpha virt. eigenvalues --    3.60796   3.61029   3.61154   3.61329   3.61677
 Alpha virt. eigenvalues --    3.62294   3.62499   3.62646   3.63460   3.63613
 Alpha virt. eigenvalues --    3.64186   3.64762   3.64845   3.65039   3.65470
 Alpha virt. eigenvalues --    3.65636   3.66047   3.66362   3.66997   3.67059
 Alpha virt. eigenvalues --    3.67667   3.68259   3.68379   3.68679   3.68845
 Alpha virt. eigenvalues --    3.69187   3.69503   3.70017   3.70480   3.70609
 Alpha virt. eigenvalues --    3.71154   3.72083   3.72207   3.72854   3.73218
 Alpha virt. eigenvalues --    3.73441   3.74204   3.74515   3.75001   3.75832
 Alpha virt. eigenvalues --    3.76216   3.76338   3.76363   3.76994   3.77359
 Alpha virt. eigenvalues --    3.77413   3.77981   3.78251   3.78340   3.78683
 Alpha virt. eigenvalues --    3.78777   3.78916   3.79258   3.79512   3.79916
 Alpha virt. eigenvalues --    3.80043   3.80327   3.80816   3.80876   3.81166
 Alpha virt. eigenvalues --    3.81779   3.82450   3.82709   3.83001   3.83325
 Alpha virt. eigenvalues --    3.83454   3.83782   3.84002   3.84175   3.84487
 Alpha virt. eigenvalues --    3.85235   3.85601   3.85777   3.85948   3.86064
 Alpha virt. eigenvalues --    3.86300   3.86407   3.86718   3.86969   3.87083
 Alpha virt. eigenvalues --    3.87254   3.87388   3.87475   3.88041   3.88526
 Alpha virt. eigenvalues --    3.88718   3.89160   3.89301   3.89430   3.89633
 Alpha virt. eigenvalues --    3.89817   3.90164   3.90387   3.90654   3.91212
 Alpha virt. eigenvalues --    3.91598   3.92100   3.92370   3.92742   3.93040
 Alpha virt. eigenvalues --    3.93217   3.93638   3.93942   3.94177   3.94712
 Alpha virt. eigenvalues --    3.95451   3.95568   3.95779   3.96394   3.96575
 Alpha virt. eigenvalues --    3.96914   3.97287   3.97483   3.97702   3.97913
 Alpha virt. eigenvalues --    3.98188   3.98511   3.98958   3.99126   3.99475
 Alpha virt. eigenvalues --    3.99857   4.00264   4.01100   4.01354   4.01697
 Alpha virt. eigenvalues --    4.02379   4.02638   4.02938   4.03371   4.03776
 Alpha virt. eigenvalues --    4.04039   4.04472   4.04945   4.05318   4.05633
 Alpha virt. eigenvalues --    4.07143   4.07290   4.08336   4.09354   4.09597
 Alpha virt. eigenvalues --    4.10308   4.10863   4.11406   4.11782   4.12469
 Alpha virt. eigenvalues --    4.12863   4.13452   4.13860   4.13927   4.14612
 Alpha virt. eigenvalues --    4.14713   4.14760   4.15095   4.15269   4.15594
 Alpha virt. eigenvalues --    4.16309   4.16919   4.17148   4.17327   4.17949
 Alpha virt. eigenvalues --    4.18149   4.18507   4.18688   4.18785   4.19256
 Alpha virt. eigenvalues --    4.19532   4.19628   4.19732   4.19797   4.20607
 Alpha virt. eigenvalues --    4.20941   4.21556   4.22032   4.22176   4.22470
 Alpha virt. eigenvalues --    4.22878   4.23128   4.23413   4.24043   4.24123
 Alpha virt. eigenvalues --    4.24582   4.24760   4.25097   4.25296   4.25402
 Alpha virt. eigenvalues --    4.25523   4.25763   4.26370   4.26525   4.26692
 Alpha virt. eigenvalues --    4.26966   4.27131   4.27229   4.27347   4.27454
 Alpha virt. eigenvalues --    4.27569   4.28159   4.28412   4.28804   4.28913
 Alpha virt. eigenvalues --    4.29508   4.29949   4.30172   4.30351   4.30654
 Alpha virt. eigenvalues --    4.30980   4.31307   4.31560   4.31714   4.32176
 Alpha virt. eigenvalues --    4.32454   4.32861   4.33059   4.33167   4.33742
 Alpha virt. eigenvalues --    4.34097   4.35159   4.35208   4.35587   4.36140
 Alpha virt. eigenvalues --    4.36408   4.36532   4.36896   4.37001   4.37404
 Alpha virt. eigenvalues --    4.38066   4.38465   4.38937   4.39121   4.39261
 Alpha virt. eigenvalues --    4.39628   4.39989   4.40224   4.40474   4.41167
 Alpha virt. eigenvalues --    4.42341   4.42817   4.43976   4.44800   4.44935
 Alpha virt. eigenvalues --    4.45549   4.45585   4.45780   4.45998   4.48222
 Alpha virt. eigenvalues --    4.48905   4.49787   4.50700   4.50804   4.51413
 Alpha virt. eigenvalues --    4.51904   4.52832   4.53472   4.54487   4.55178
 Alpha virt. eigenvalues --    4.56063   4.56464   4.56608   4.56802   4.57471
 Alpha virt. eigenvalues --    4.57685   4.59265   4.59608   4.59888   4.60773
 Alpha virt. eigenvalues --    4.61244   4.62408   4.63886   4.64713   4.64929
 Alpha virt. eigenvalues --    4.65425   4.65771   4.66102   4.66494   4.67339
 Alpha virt. eigenvalues --    4.67688   4.67803   4.68064   4.68260   4.68864
 Alpha virt. eigenvalues --    4.69435   4.69987   4.70343   4.70996   4.71232
 Alpha virt. eigenvalues --    4.71377   4.72181   4.72372   4.72822   4.73045
 Alpha virt. eigenvalues --    4.73060   4.73338   4.74211   4.74719   4.75006
 Alpha virt. eigenvalues --    4.75301   4.75396   4.75751   4.75902   4.76471
 Alpha virt. eigenvalues --    4.76611   4.76855   4.77151   4.77747   4.77929
 Alpha virt. eigenvalues --    4.78106   4.78376   4.78728   4.79047   4.79192
 Alpha virt. eigenvalues --    4.79769   4.80293   4.80580   4.81252   4.81573
 Alpha virt. eigenvalues --    4.82038   4.82861   4.83697   4.85177   4.86253
 Alpha virt. eigenvalues --    4.87686   4.88379   4.88807   4.89056   4.89209
 Alpha virt. eigenvalues --    4.89432   4.89724   4.90183   4.90683   4.91196
 Alpha virt. eigenvalues --    4.92006   4.93983   4.94193   4.94528   4.97451
 Alpha virt. eigenvalues --    4.99204   4.99923   5.00219   5.00620   5.00795
 Alpha virt. eigenvalues --    5.00829   5.01081   5.01315   5.01535   5.02016
 Alpha virt. eigenvalues --    5.02326   5.02522   5.02716   5.03358   5.03870
 Alpha virt. eigenvalues --    5.04088   5.06543   5.08976   5.09413   5.12276
 Alpha virt. eigenvalues --    5.12908   5.13989   5.14129   5.15966   5.16140
 Alpha virt. eigenvalues --    5.18115   5.19267   5.20579   5.21609   5.22396
 Alpha virt. eigenvalues --    5.22744   5.22906   5.23214   5.23265   5.23663
 Alpha virt. eigenvalues --    5.23835   5.24688   5.24759   5.25043   5.25873
 Alpha virt. eigenvalues --    5.26664   5.27925   5.28014   5.29760   5.30009
 Alpha virt. eigenvalues --    5.30088   5.30389   5.31010   5.31348   5.32110
 Alpha virt. eigenvalues --    5.32419   5.33887   5.34649   5.35330   5.35543
 Alpha virt. eigenvalues --    5.35619   5.36293   5.37090   5.37348   5.38483
 Alpha virt. eigenvalues --    5.39053   5.41466   5.41811   5.42631   5.42892
 Alpha virt. eigenvalues --    5.43675   5.43906   5.44808   5.45001   5.45152
 Alpha virt. eigenvalues --    5.45280   5.46048   5.46786   5.47026   5.48002
 Alpha virt. eigenvalues --    5.48416   5.49183   5.49787   5.50337   5.51289
 Alpha virt. eigenvalues --    5.51481   5.54429   5.56651   5.59154   5.59779
 Alpha virt. eigenvalues --    5.60031   5.60432   5.60959   5.61039   5.62151
 Alpha virt. eigenvalues --    5.62350   5.62959   5.65251   5.65686   5.67860
 Alpha virt. eigenvalues --    5.68046   5.68565   5.69471   5.70000   5.70318
 Alpha virt. eigenvalues --    5.71182   5.71834   5.71938   5.74101   5.75456
 Alpha virt. eigenvalues --    5.75526   5.75861   5.76042   5.78207   5.80134
 Alpha virt. eigenvalues --    5.83197   5.85319   5.85627   5.89055   5.92118
 Alpha virt. eigenvalues --    5.92230   5.92812   5.92983   5.96808   6.00149
 Alpha virt. eigenvalues --    6.01487   6.01667   6.04839   6.04911   6.05694
 Alpha virt. eigenvalues --    6.06254   6.06759   6.08380   6.10580   6.12004
 Alpha virt. eigenvalues --    6.16861   6.17256   6.18383   6.18594   6.18905
 Alpha virt. eigenvalues --    6.20043   6.22645   6.23618   6.32643   6.34862
 Alpha virt. eigenvalues --    6.49970   6.50904   6.53405   6.53826   6.58016
 Alpha virt. eigenvalues --    6.58310   6.63494   6.64173   6.64434   6.64801
 Alpha virt. eigenvalues --    6.70299   6.73540   6.78631   6.78865   6.94722
 Alpha virt. eigenvalues --    6.95345   6.98613   6.99713   7.37692   7.40630
 Alpha virt. eigenvalues --    7.55572   7.59544   7.94921   7.96365   8.07737
 Alpha virt. eigenvalues --    8.11397   8.15421   8.15740  13.01876  13.01901
 Alpha virt. eigenvalues --   13.01942  13.01961  13.02100  13.02187  13.02220
 Alpha virt. eigenvalues --   13.02232  13.02306  13.21424  13.23282  13.24025
 Alpha virt. eigenvalues --   13.24146  13.24984  13.31353  13.34956  16.35875
 Alpha virt. eigenvalues --   16.36828  22.69654  22.81434  22.85265  22.86972
 Alpha virt. eigenvalues --   22.90696  22.97393  23.08362  23.11643  23.12537
 Alpha virt. eigenvalues --   23.16479  23.17380  23.19014  23.21626  23.22311
 Alpha virt. eigenvalues --   23.23786  23.24217  23.24839  23.25091  23.25571
 Alpha virt. eigenvalues --   23.26247  23.28239  23.28463  23.29786  23.30413
 Alpha virt. eigenvalues --   23.31041  23.32018  23.32923  23.37598  23.38961
 Alpha virt. eigenvalues --   23.39494  23.69820  23.72654  23.93567  24.01136
 Alpha virt. eigenvalues --   24.04394  24.04657  24.06790  24.07810  34.62318
 Alpha virt. eigenvalues --   34.67654  34.85060  42.95150  44.59971  44.66172
 Alpha virt. eigenvalues --  118.25767
          Condensed to atoms (all electrons):
 Mulliken charges:
               1
     1  C   -0.182498
     2  C   -0.220018
     3  C    0.161535
     4  C   -0.017293
     5  C   -0.017621
     6  C   -0.142407
     7  C    0.001074
     8  C    0.173038
     9  C   -0.226754
    10  C   -0.181845
    11  C   -0.136048
    12  C   -0.042048
    13  P    0.415013
    14  P    0.444418
    15  H    0.157560
    16  H    0.137334
    17  H    0.157196
    18  H    0.137983
    19  Cu   0.047646
    20  C    0.059256
    21  C   -0.178335
    22  C   -0.181237
    23  C   -0.162677
    24  H    0.141778
    25  C   -0.164322
    26  H    0.144915
    27  C   -0.140078
    28  H    0.157019
    29  H    0.156256
    30  H    0.156987
    31  C    0.027409
    32  C   -0.191148
    33  C   -0.094530
    34  C   -0.172366
    35  H    0.137154
    36  C   -0.186484
    37  H    0.132330
    38  C   -0.125962
    39  H    0.156529
    40  H    0.152739
    41  H    0.156101
    42  C    0.047513
    43  C   -0.174472
    44  C   -0.167703
    45  C   -0.166223
    46  H    0.141041
    47  C   -0.172871
    48  H    0.141966
    49  C   -0.135606
    50  H    0.157180
    51  H    0.156287
    52  H    0.157314
    53  C    0.053485
    54  C   -0.199894
    55  C   -0.107719
    56  C   -0.170235
    57  H    0.137942
    58  C   -0.184359
    59  H    0.137465
    60  C   -0.128815
    61  H    0.155753
    62  H    0.153256
    63  H    0.156002
    64  O   -0.263783
    65  O   -0.264598
    66  C   -0.169955
    67  H    0.139932
    68  H    0.138654
    69  H    0.120204
    70  H    0.112388
    71  H    0.124395
    72  C   -0.171548
    73  H    0.113515
    74  H    0.120238
    75  H    0.124798
    76  I   -0.759145
 Sum of Mulliken charges =  -0.00000
 Mulliken charges with hydrogens summed into heavy atoms:
               1
     1  C   -0.024938
     2  C   -0.080085
     3  C    0.161535
     4  C   -0.017293
     5  C   -0.017621
     6  C   -0.005073
     7  C    0.001074
     8  C    0.173038
     9  C   -0.088100
    10  C   -0.024649
    11  C    0.001935
    12  C   -0.042048
    13  P    0.415013
    14  P    0.444418
    19  Cu   0.047646
    20  C    0.059256
    21  C   -0.036557
    22  C   -0.036322
    23  C   -0.005658
    25  C   -0.008066
    27  C    0.016909
    31  C    0.027409
    32  C   -0.053994
    33  C    0.037800
    34  C   -0.015838
    36  C   -0.033745
    38  C    0.030139
    42  C    0.047513
    43  C   -0.033432
    44  C   -0.025737
    45  C   -0.009042
    47  C   -0.016584
    49  C    0.021707
    53  C    0.053485
    54  C   -0.061951
    55  C    0.029746
    56  C   -0.014482
    58  C   -0.031103
    60  C    0.027187
    64  O   -0.263783
    65  O   -0.264598
    66  C    0.187031
    72  C    0.187003
    76  I   -0.759145
 Electronic spatial extent (au):  <R**2>=          23159.5155
 Charge=             -0.0000 electrons
 Dipole moment (field-independent basis, Debye):
    X=              0.8075    Y=             17.0731    Z=              0.0581  Tot=             17.0923
 Quadrupole moment (field-independent basis, Debye-Ang):
   XX=           -255.9175   YY=           -306.1983   ZZ=           -252.4350
   XY=             -1.3342   XZ=              4.1254   YZ=             -0.1761
 Traceless Quadrupole moment (field-independent basis, Debye-Ang):
   XX=             15.5994   YY=            -34.6814   ZZ=             19.0820
   XY=             -1.3342   XZ=              4.1254   YZ=             -0.1761
 Octapole moment (field-independent basis, Debye-Ang**2):
  XXX=              3.3921  YYY=            247.9837  ZZZ=             -1.0154  XYY=             25.0995
  XXY=            -30.2024  XXZ=              1.9417  XZZ=            -16.5117  YZZ=            -11.2825
  YYZ=            -13.9028  XYZ=            108.6655
 Hexadecapole moment (field-independent basis, Debye-Ang**3):
 XXXX=         -12568.9348 YYYY=         -10604.6280 ZZZZ=          -6878.7520 XXXY=              5.5782
 XXXZ=           -258.4876 YYYX=             28.2464 YYYZ=              1.2057 ZZZX=            235.1001
 ZZZY=            -47.5881 XXYY=          -3853.6465 XXZZ=          -3207.9473 YYZZ=          -2564.5849
 XXYZ=             34.2663 YYXZ=            112.6336 ZZXY=             42.8218
 N-N= 7.295458759351D+03 E-N=-2.453133241287D+04  KE= 4.040342929510D+03
 No NMR shielding tensors so no spin-rotation constants.
 Leave Link  601 at Wed Apr  3 11:02:09 2024, MaxMem= 10737418240 cpu:              63.1 elap:               1.9
 (Enter /lustre/home/acct-chenxiangyang/chenxiangyang-user1/software/g16/l9999.exe)
 1\1\GINC-CAS508\SP\RPBE1PBE\def2TZVPP\C38H32Cu1I1O2P2\CHENXIANGYANG-US
 ER1\03-Apr-2024\0\\#p pbe1pbe/def2TZVPP em=gd3bj scrf=(smd,solvent=dms
 o)\\Title\\0,1\C,0,1.548603,2.131235,-3.347102\C,0,0.539423,3.027823,-
 2.996502\C,0,-0.020596,2.971119,-1.719074\C,0,0.400132,2.001965,-0.785
 033\C,0,1.416176,1.095413,-1.153411\C,0,1.989395,1.171835,-2.438349\C,
 0,-0.200472,2.105759,0.588246\C,0,0.30834,3.136896,1.404889\C,0,-0.224
 19,3.377832,2.672287\C,0,-1.289224,2.603169,3.130792\C,0,-1.814203,1.5
 83829,2.339982\C,0,-1.272871,1.3242,1.065009\P,0,1.813613,-0.325328,-0
 .046976\P,0,-1.805172,-0.172359,0.127303\H,0,1.990448,2.181544,-4.3325
 77\H,0,2.766331,0.47848,-2.721597\H,0,-1.707879,2.793936,4.109129\H,0,
 -2.630359,0.982768,2.709904\Cu,0,-0.069509,-1.628471,0.016164\C,0,-3.2
 74359,-0.773327,1.060388\C,0,-4.597099,-0.443484,0.720546\C,0,-3.03466
 7,-1.63559,2.150762\C,0,-5.662943,-0.955524,1.4684\H,0,-4.794971,0.196
 896,-0.127026\C,0,-4.105814,-2.131552,2.899966\H,0,-2.020073,-1.935643
 ,2.385365\C,0,-5.420014,-1.792944,2.560553\H,0,-6.677894,-0.701696,1.1
 95203\H,0,-3.912047,-2.789412,3.736076\H,0,-6.246805,-2.185495,3.13588
 1\C,0,-2.513164,0.461345,-1.439066\C,0,-2.405349,-0.349856,-2.582321\C
 ,0,-3.192871,1.689354,-1.520939\C,0,-2.984306,0.054924,-3.788449\H,0,-
 1.863449,-1.284947,-2.51873\C,0,-3.774441,2.085035,-2.729275\H,0,-3.24
 5051,2.333232,-0.655176\C,0,-3.672764,1.269075,-3.861416\H,0,-2.896656
 ,-0.573184,-4.663994\H,0,-4.307554,3.024383,-2.785687\H,0,-4.125087,1.
 579074,-4.793255\C,0,3.290341,-1.101463,-0.832198\C,0,4.616858,-0.7980
 18,-0.482716\C,0,3.046506,-2.078285,-1.81775\C,0,5.679525,-1.439866,-1
 .128229\H,0,4.820609,-0.082141,0.300194\C,0,4.111865,-2.706706,-2.4676
 78\H,0,2.025785,-2.3564,-2.048116\C,0,5.430267,-2.385819,-2.127186\H,0
 ,6.696684,-1.201912,-0.84866\H,0,3.912255,-3.454016,-3.223043\H,0,6.25
 4002,-2.876842,-2.626453\C,0,2.464964,0.421291,1.495335\C,0,2.115918,-
 0.194061,2.71156\C,0,3.313837,1.542322,1.500654\C,0,2.634574,0.293094,
 3.916186\H,0,1.439279,-1.040044,2.703618\C,0,3.835872,2.016109,2.70813
 6\H,0,3.545103,2.04736,0.573689\C,0,3.500617,1.390445,3.914321\H,0,2.3
 60628,-0.181844,4.848123\H,0,4.502002,2.868376,2.707668\H,0,3.907931,1
 .759909,4.845316\O,0,-1.01009,3.837522,-1.276808\O,0,1.358373,3.864801
 ,0.863433\C,0,1.905157,4.971108,1.647577\H,0,0.204886,3.76037,-3.71366
 5\H,0,0.177773,4.156754,3.300142\H,0,2.678241,5.405384,1.018637\H,0,2.
 345256,4.613667,2.581052\H,0,1.141273,5.721838,1.864809\C,0,-1.456093,
 4.89338,-2.183977\H,0,-1.927896,4.47557,-3.076178\H,0,-2.186463,5.4627
 88,-1.614471\H,0,-0.6281,5.543913,-2.476119\I,0,-0.186659,-4.125333,-0
 .028042\\Version=ES64L-G16RevA.03\State=1-A\HF=-4237.1847013\RMSD=3.71
 7e-09\Dipole=0.3176847,6.7170701,0.0228726\Quadrupole=11.5977892,-25.7
 847731,14.1869839,-0.99197,3.0671007,-0.1309029\PG=C01 [X(C38H32Cu1I1O
 2P2)]\\@


 YOU SHOULDN'T LET PEOPLE DRIVE YOU CRAZY
 WHEN YOU KNOW IT'S WITHIN WALKING DISTANCE.
 Job cpu time:       0 days 21 hours 38 minutes 42.2 seconds.
 Elapsed time:       0 days  0 hours 32 minutes 51.5 seconds.
 File lengths (MBytes):  RWF=   2399 Int=      0 D2E=      0 Chk=    207 Scr=      1
 Normal termination of Gaussian 16 at Wed Apr  3 11:02:10 2024.
