 Entering Gaussian System, Link 0=g16
 Input=I-Bpin-of1.gjf
 Output=I-Bpin-of1.log
 Initial command:
 /lustre/home/acct-chenxiangyang/chenxiangyang-user1/software/g16/l1.exe "/lustre/home/acct-chenxiangyang/chenxiangyang-user1/software/tmp/Gau-414539.inp" -scrdir="/lustre/home/acct-chenxiangyang/chenxiangyang-user1/software/tmp/"
 Entering Link 1 = /lustre/home/acct-chenxiangyang/chenxiangyang-user1/software/g16/l1.exe PID=    414540.
  
 Copyright (c) 1988,1990,1992,1993,1995,1998,2003,2009,2016,
            Gaussian, Inc.  All Rights Reserved.
  
 This is part of the Gaussian(R) 16 program.  It is based on
 the Gaussian(R) 09 system (copyright 2009, Gaussian, Inc.),
 the Gaussian(R) 03 system (copyright 2003, Gaussian, Inc.),
 the Gaussian(R) 98 system (copyright 1998, Gaussian, Inc.),
 the Gaussian(R) 94 system (copyright 1995, Gaussian, Inc.),
 the Gaussian 92(TM) system (copyright 1992, Gaussian, Inc.),
 the Gaussian 90(TM) system (copyright 1990, Gaussian, Inc.),
 the Gaussian 88(TM) system (copyright 1988, Gaussian, Inc.),
 the Gaussian 86(TM) system (copyright 1986, Carnegie Mellon
 University), and the Gaussian 82(TM) system (copyright 1983,
 Carnegie Mellon University). Gaussian is a federally registered
 trademark of Gaussian, Inc.
  
 This software contains proprietary and confidential information,
 including trade secrets, belonging to Gaussian, Inc.
  
 This software is provided under written license and may be
 used, copied, transmitted, or stored only in accord with that
 written license.
  
 The following legend is applicable only to US Government
 contracts under FAR:
  
                    RESTRICTED RIGHTS LEGEND
  
 Use, reproduction and disclosure by the US Government is
 subject to restrictions as set forth in subparagraphs (a)
 and (c) of the Commercial Computer Software - Restricted
 Rights clause in FAR 52.227-19.
  
 Gaussian, Inc.
 340 Quinnipiac St., Bldg. 40, Wallingford CT 06492
  
  
 ---------------------------------------------------------------
 Warning -- This program may not be used in any manner that
 competes with the business of Gaussian, Inc. or will provide
 assistance to any competitor of Gaussian, Inc.  The licensee
 of this program is prohibited from giving any competitor of
 Gaussian, Inc. access to this program.  By using this program,
 the user acknowledges that Gaussian, Inc. is engaged in the
 business of creating and licensing software in the field of
 computational chemistry and represents and warrants to the
 licensee that it is not a competitor of Gaussian, Inc. and that
 it will not use this program in any manner prohibited above.
 ---------------------------------------------------------------
  

 Cite this work as:
 Gaussian 16, Revision A.03,
 M. J. Frisch, G. W. Trucks, H. B. Schlegel, G. E. Scuseria, 
 M. A. Robb, J. R. Cheeseman, G. Scalmani, V. Barone, 
 G. A. Petersson, H. Nakatsuji, X. Li, M. Caricato, A. V. Marenich, 
 J. Bloino, B. G. Janesko, R. Gomperts, B. Mennucci, H. P. Hratchian, 
 J. V. Ortiz, A. F. Izmaylov, J. L. Sonnenberg, D. Williams-Young, 
 F. Ding, F. Lipparini, F. Egidi, J. Goings, B. Peng, A. Petrone, 
 T. Henderson, D. Ranasinghe, V. G. Zakrzewski, J. Gao, N. Rega, 
 G. Zheng, W. Liang, M. Hada, M. Ehara, K. Toyota, R. Fukuda, 
 J. Hasegawa, M. Ishida, T. Nakajima, Y. Honda, O. Kitao, H. Nakai, 
 T. Vreven, K. Throssell, J. A. Montgomery, Jr., J. E. Peralta, 
 F. Ogliaro, M. J. Bearpark, J. J. Heyd, E. N. Brothers, K. N. Kudin, 
 V. N. Staroverov, T. A. Keith, R. Kobayashi, J. Normand, 
 K. Raghavachari, A. P. Rendell, J. C. Burant, S. S. Iyengar, 
 J. Tomasi, M. Cossi, J. M. Millam, M. Klene, C. Adamo, R. Cammi, 
 J. W. Ochterski, R. L. Martin, K. Morokuma, O. Farkas, 
 J. B. Foresman, and D. J. Fox, Gaussian, Inc., Wallingford CT, 2016.
 
 ******************************************
 Gaussian 16:  ES64L-G16RevA.03 25-Dec-2016
                25-Apr-2024 
 ******************************************
 %nprocshared=40
 Will use up to   40 processors via shared memory.
 %mem=80GB
 %chk=I-Bpin-of1.chk
 ------------------------------------
 #p opt freq def2svp em=gd3bj pbe1pbe
 ------------------------------------
 1/18=20,19=15,26=3,38=1/1,3;
 2/9=110,12=2,17=6,18=5,40=1/2;
 3/5=43,7=101,11=2,25=1,30=1,71=1,74=-13,124=41/1,2,3;
 4//1;
 5/5=2,38=5/2;
 6/7=2,8=2,9=2,10=2,28=1/1;
 7//1,2,3,16;
 1/18=20,19=15,26=3/3(2);
 2/9=110/2;
 99//99;
 2/9=110/2;
 3/5=43,7=101,11=2,25=1,30=1,71=1,74=-13,124=41/1,2,3;
 4/5=5,16=3,69=1/1;
 5/5=2,38=5/2;
 7//1,2,3,16;
 1/18=20,19=15,26=3/3(-5);
 2/9=110/2;
 6/7=2,8=2,9=2,10=2,19=2,28=1/1;
 99/9=1/99;
 Leave Link    1 at Thu Apr 25 01:55:19 2024, MaxMem= 10737418240 cpu:               5.5 elap:               0.1
 (Enter /lustre/home/acct-chenxiangyang/chenxiangyang-user1/software/g16/l101.exe)
 -------------------
 Title Card Required
 -------------------
 Symbolic Z-matrix:
 Charge =  0 Multiplicity = 1
 B                    -0.07961  -0.03469   0. 
 O                     0.61348  -0.79723   0.90066 
 O                    -0.7727   -0.79713  -0.90074 
 C                     0.55906  -2.16382   0.45354 
 C                    -0.71836  -2.16375  -0.45373 
 C                     1.84277  -2.42394  -0.32636 
 C                     0.48469  -3.07574   1.66327 
 C                    -2.0021   -2.42388   0.32612 
 C                    -0.64398  -3.07557  -1.66353 
 H                     1.92232  -3.47326  -0.64507 
 H                     2.70134  -2.19005   0.31923 
 H                     1.90301  -1.78025  -1.21595 
 H                     1.41739  -2.999     2.24054 
 H                     0.35832  -4.12481   1.35529 
 H                    -0.34513  -2.79965   2.32591 
 H                    -2.0817   -3.47322   0.64474 
 H                    -2.86065  -2.1899   -0.31946 
 H                    -2.06234  -1.78026   1.21576 
 H                     0.18593  -2.79949  -2.32607 
 H                    -1.57662  -2.99868  -2.24088 
 H                    -0.51775  -4.12469  -1.35564 
 I                    -0.0796    2.17531   0.00011 
 
 ITRead=  0  0  0  0  0  0  0  0  0  0  0  0  0  0  0  0  0  0  0  0
 ITRead=  0  0
 MicOpt= -1 -1 -1 -1 -1 -1 -1 -1 -1 -1 -1 -1 -1 -1 -1 -1 -1 -1 -1 -1
 MicOpt= -1 -1
 NAtoms=     22 NQM=       22 NQMF=       0 NMMI=      0 NMMIF=      0
                NMic=       0 NMicF=      0.
                    Isotopes and Nuclear Properties:
 (Nuclear quadrupole moments (NQMom) in fm**2, nuclear magnetic moments (NMagM)
  in nuclear magnetons)

  Atom         1           2           3           4           5           6           7           8           9          10
 IAtWgt=          11          16          16          12          12          12          12          12          12           1
 AtmWgt=  11.0093053  15.9949146  15.9949146  12.0000000  12.0000000  12.0000000  12.0000000  12.0000000  12.0000000   1.0078250
 NucSpn=           3           0           0           0           0           0           0           0           0           1
 AtZEff=  -0.0000000  -0.0000000  -0.0000000  -0.0000000  -0.0000000  -0.0000000  -0.0000000  -0.0000000  -0.0000000  -0.0000000
 NQMom=    4.0590000   0.0000000   0.0000000   0.0000000   0.0000000   0.0000000   0.0000000   0.0000000   0.0000000   0.0000000
 NMagM=    2.6886370   0.0000000   0.0000000   0.0000000   0.0000000   0.0000000   0.0000000   0.0000000   0.0000000   2.7928460
 AtZNuc=   5.0000000   8.0000000   8.0000000   6.0000000   6.0000000   6.0000000   6.0000000   6.0000000   6.0000000   1.0000000

  Atom        11          12          13          14          15          16          17          18          19          20
 IAtWgt=           1           1           1           1           1           1           1           1           1           1
 AtmWgt=   1.0078250   1.0078250   1.0078250   1.0078250   1.0078250   1.0078250   1.0078250   1.0078250   1.0078250   1.0078250
 NucSpn=           1           1           1           1           1           1           1           1           1           1
 AtZEff=  -0.0000000  -0.0000000  -0.0000000  -0.0000000  -0.0000000  -0.0000000  -0.0000000  -0.0000000  -0.0000000  -0.0000000
 NQMom=    0.0000000   0.0000000   0.0000000   0.0000000   0.0000000   0.0000000   0.0000000   0.0000000   0.0000000   0.0000000
 NMagM=    2.7928460   2.7928460   2.7928460   2.7928460   2.7928460   2.7928460   2.7928460   2.7928460   2.7928460   2.7928460
 AtZNuc=   1.0000000   1.0000000   1.0000000   1.0000000   1.0000000   1.0000000   1.0000000   1.0000000   1.0000000   1.0000000

  Atom        21          22
 IAtWgt=           1         127
 AtmWgt=   1.0078250 126.9004000
 NucSpn=           1           5
 AtZEff=  -0.0000000  -0.0000000
 NQMom=    0.0000000 -71.0000000
 NMagM=    2.7928460   2.8132800
 AtZNuc=   1.0000000  53.0000000
 Leave Link  101 at Thu Apr 25 01:55:20 2024, MaxMem= 10737418240 cpu:              12.7 elap:               0.3
 (Enter /lustre/home/acct-chenxiangyang/chenxiangyang-user1/software/g16/l103.exe)

 GradGradGradGradGradGradGradGradGradGradGradGradGradGradGradGradGradGrad
 Berny optimization.
 Initialization pass.
                           ----------------------------
                           !    Initial Parameters    !
                           ! (Angstroms and Degrees)  !
 --------------------------                            --------------------------
 ! Name  Definition              Value          Derivative Info.                !
 --------------------------------------------------------------------------------
 ! R1    R(1,2)                  1.3686         estimate D2E/DX2                !
 ! R2    R(1,3)                  1.3686         estimate D2E/DX2                !
 ! R3    R(1,22)                 2.21           estimate D2E/DX2                !
 ! R4    R(2,4)                  1.4389         estimate D2E/DX2                !
 ! R5    R(3,5)                  1.4389         estimate D2E/DX2                !
 ! R6    R(4,5)                  1.5668         estimate D2E/DX2                !
 ! R7    R(4,6)                  1.5244         estimate D2E/DX2                !
 ! R8    R(4,7)                  1.5168         estimate D2E/DX2                !
 ! R9    R(5,8)                  1.5244         estimate D2E/DX2                !
 ! R10   R(5,9)                  1.5168         estimate D2E/DX2                !
 ! R11   R(6,10)                 1.0995         estimate D2E/DX2                !
 ! R12   R(6,11)                 1.0994         estimate D2E/DX2                !
 ! R13   R(6,12)                 1.0997         estimate D2E/DX2                !
 ! R14   R(7,13)                 1.0996         estimate D2E/DX2                !
 ! R15   R(7,14)                 1.1006         estimate D2E/DX2                !
 ! R16   R(7,15)                 1.0972         estimate D2E/DX2                !
 ! R17   R(8,16)                 1.0995         estimate D2E/DX2                !
 ! R18   R(8,17)                 1.0994         estimate D2E/DX2                !
 ! R19   R(8,18)                 1.0997         estimate D2E/DX2                !
 ! R20   R(9,19)                 1.0972         estimate D2E/DX2                !
 ! R21   R(9,20)                 1.0996         estimate D2E/DX2                !
 ! R22   R(9,21)                 1.1006         estimate D2E/DX2                !
 ! A1    A(2,1,3)              112.2838         estimate D2E/DX2                !
 ! A2    A(2,1,22)             123.8581         estimate D2E/DX2                !
 ! A3    A(3,1,22)             123.8581         estimate D2E/DX2                !
 ! A4    A(1,2,4)              107.7898         estimate D2E/DX2                !
 ! A5    A(1,3,5)              107.7898         estimate D2E/DX2                !
 ! A6    A(2,4,5)              102.1646         estimate D2E/DX2                !
 ! A7    A(2,4,6)              106.8098         estimate D2E/DX2                !
 ! A8    A(2,4,7)              108.9677         estimate D2E/DX2                !
 ! A9    A(5,4,6)              112.9746         estimate D2E/DX2                !
 ! A10   A(5,4,7)              114.9532         estimate D2E/DX2                !
 ! A11   A(6,4,7)              110.2883         estimate D2E/DX2                !
 ! A12   A(3,5,4)              102.1646         estimate D2E/DX2                !
 ! A13   A(3,5,8)              106.8102         estimate D2E/DX2                !
 ! A14   A(3,5,9)              108.9671         estimate D2E/DX2                !
 ! A15   A(4,5,8)              112.976          estimate D2E/DX2                !
 ! A16   A(4,5,9)              114.9514         estimate D2E/DX2                !
 ! A17   A(8,5,9)              110.2889         estimate D2E/DX2                !
 ! A18   A(4,6,10)             111.843          estimate D2E/DX2                !
 ! A19   A(4,6,11)             108.7181         estimate D2E/DX2                !
 ! A20   A(4,6,12)             111.1068         estimate D2E/DX2                !
 ! A21   A(10,6,11)            108.4667         estimate D2E/DX2                !
 ! A22   A(10,6,12)            108.6727         estimate D2E/DX2                !
 ! A23   A(11,6,12)            107.9219         estimate D2E/DX2                !
 ! A24   A(4,7,13)             109.5828         estimate D2E/DX2                !
 ! A25   A(4,7,14)             110.8254         estimate D2E/DX2                !
 ! A26   A(4,7,15)             111.5596         estimate D2E/DX2                !
 ! A27   A(13,7,14)            108.1082         estimate D2E/DX2                !
 ! A28   A(13,7,15)            107.872          estimate D2E/DX2                !
 ! A29   A(14,7,15)            108.7841         estimate D2E/DX2                !
 ! A30   A(5,8,16)             111.8426         estimate D2E/DX2                !
 ! A31   A(5,8,17)             108.7186         estimate D2E/DX2                !
 ! A32   A(5,8,18)             111.107          estimate D2E/DX2                !
 ! A33   A(16,8,17)            108.4665         estimate D2E/DX2                !
 ! A34   A(16,8,18)            108.673          estimate D2E/DX2                !
 ! A35   A(17,8,18)            107.9215         estimate D2E/DX2                !
 ! A36   A(5,9,19)             111.559          estimate D2E/DX2                !
 ! A37   A(5,9,20)             109.5829         estimate D2E/DX2                !
 ! A38   A(5,9,21)             110.8261         estimate D2E/DX2                !
 ! A39   A(19,9,20)            107.8719         estimate D2E/DX2                !
 ! A40   A(19,9,21)            108.7841         estimate D2E/DX2                !
 ! A41   A(20,9,21)            108.108          estimate D2E/DX2                !
 ! D1    D(3,1,2,4)              9.6434         estimate D2E/DX2                !
 ! D2    D(22,1,2,4)          -170.3566         estimate D2E/DX2                !
 ! D3    D(2,1,3,5)              9.6464         estimate D2E/DX2                !
 ! D4    D(22,1,3,5)          -170.3536         estimate D2E/DX2                !
 ! D5    D(1,2,4,5)            -22.7546         estimate D2E/DX2                !
 ! D6    D(1,2,4,6)             96.0768         estimate D2E/DX2                !
 ! D7    D(1,2,4,7)           -144.7894         estimate D2E/DX2                !
 ! D8    D(1,3,5,4)            -22.7563         estimate D2E/DX2                !
 ! D9    D(1,3,5,8)             96.0768         estimate D2E/DX2                !
 ! D10   D(1,3,5,9)           -144.7888         estimate D2E/DX2                !
 ! D11   D(2,4,5,3)             27.3892         estimate D2E/DX2                !
 ! D12   D(2,4,5,8)            -86.9873         estimate D2E/DX2                !
 ! D13   D(2,4,5,9)            145.2298         estimate D2E/DX2                !
 ! D14   D(6,4,5,3)            -86.9862         estimate D2E/DX2                !
 ! D15   D(6,4,5,8)            158.6373         estimate D2E/DX2                !
 ! D16   D(6,4,5,9)             30.8544         estimate D2E/DX2                !
 ! D17   D(7,4,5,3)            145.2314         estimate D2E/DX2                !
 ! D18   D(7,4,5,8)             30.855          estimate D2E/DX2                !
 ! D19   D(7,4,5,9)            -96.928          estimate D2E/DX2                !
 ! D20   D(2,4,6,10)           175.7529         estimate D2E/DX2                !
 ! D21   D(2,4,6,11)            56.0087         estimate D2E/DX2                !
 ! D22   D(2,4,6,12)           -62.6154         estimate D2E/DX2                !
 ! D23   D(5,4,6,10)           -72.7059         estimate D2E/DX2                !
 ! D24   D(5,4,6,11)           167.5499         estimate D2E/DX2                !
 ! D25   D(5,4,6,12)            48.9258         estimate D2E/DX2                !
 ! D26   D(7,4,6,10)            57.4792         estimate D2E/DX2                !
 ! D27   D(7,4,6,11)           -62.265          estimate D2E/DX2                !
 ! D28   D(7,4,6,12)           179.1109         estimate D2E/DX2                !
 ! D29   D(2,4,7,13)           -65.4333         estimate D2E/DX2                !
 ! D30   D(2,4,7,14)           175.3399         estimate D2E/DX2                !
 ! D31   D(2,4,7,15)            53.9596         estimate D2E/DX2                !
 ! D32   D(5,4,7,13)          -179.3675         estimate D2E/DX2                !
 ! D33   D(5,4,7,14)            61.4057         estimate D2E/DX2                !
 ! D34   D(5,4,7,15)           -59.9747         estimate D2E/DX2                !
 ! D35   D(6,4,7,13)            51.5084         estimate D2E/DX2                !
 ! D36   D(6,4,7,14)           -67.7184         estimate D2E/DX2                !
 ! D37   D(6,4,7,15)           170.9013         estimate D2E/DX2                !
 ! D38   D(3,5,8,16)           175.7525         estimate D2E/DX2                !
 ! D39   D(3,5,8,17)            56.0084         estimate D2E/DX2                !
 ! D40   D(3,5,8,18)           -62.6156         estimate D2E/DX2                !
 ! D41   D(4,5,8,16)           -72.7054         estimate D2E/DX2                !
 ! D42   D(4,5,8,17)           167.5505         estimate D2E/DX2                !
 ! D43   D(4,5,8,18)            48.9265         estimate D2E/DX2                !
 ! D44   D(9,5,8,16)            57.479          estimate D2E/DX2                !
 ! D45   D(9,5,8,17)           -62.2651         estimate D2E/DX2                !
 ! D46   D(9,5,8,18)           179.1109         estimate D2E/DX2                !
 ! D47   D(3,5,9,19)            53.964          estimate D2E/DX2                !
 ! D48   D(3,5,9,20)           -65.4285         estimate D2E/DX2                !
 ! D49   D(3,5,9,21)           175.3444         estimate D2E/DX2                !
 ! D50   D(4,5,9,19)           -59.9688         estimate D2E/DX2                !
 ! D51   D(4,5,9,20)          -179.3612         estimate D2E/DX2                !
 ! D52   D(4,5,9,21)            61.4117         estimate D2E/DX2                !
 ! D53   D(8,5,9,19)           170.9062         estimate D2E/DX2                !
 ! D54   D(8,5,9,20)            51.5137         estimate D2E/DX2                !
 ! D55   D(8,5,9,21)           -67.7134         estimate D2E/DX2                !
 --------------------------------------------------------------------------------
 Trust Radius=3.00D-01 FncErr=1.00D-07 GrdErr=1.00D-06 EigMax=2.50D+02 EigMin=1.00D-04
 Number of steps in this run=    128 maximum allowed number of steps=    132.
 GradGradGradGradGradGradGradGradGradGradGradGradGradGradGradGradGradGrad

 Leave Link  103 at Thu Apr 25 01:55:20 2024, MaxMem= 10737418240 cpu:               0.4 elap:               0.0
 (Enter /lustre/home/acct-chenxiangyang/chenxiangyang-user1/software/g16/l202.exe)
                          Input orientation:                          
 ---------------------------------------------------------------------
 Center     Atomic      Atomic             Coordinates (Angstroms)
 Number     Number       Type             X           Y           Z
 ---------------------------------------------------------------------
      1          5           0       -0.079608   -0.034692    0.000000
      2          8           0        0.613477   -0.797232    0.900662
      3          8           0       -0.772703   -0.797135   -0.900742
      4          6           0        0.559063   -2.163816    0.453543
      5          6           0       -0.718365   -2.163747   -0.453727
      6          6           0        1.842772   -2.423942   -0.326359
      7          6           0        0.484686   -3.075741    1.663267
      8          6           0       -2.002104   -2.423882    0.326118
      9          6           0       -0.643979   -3.075569   -1.663525
     10          1           0        1.922315   -3.473258   -0.645072
     11          1           0        2.701336   -2.190050    0.319225
     12          1           0        1.903014   -1.780247   -1.215946
     13          1           0        1.417390   -2.999004    2.240544
     14          1           0        0.358324   -4.124812    1.355286
     15          1           0       -0.345135   -2.799647    2.325909
     16          1           0       -2.081696   -3.473221    0.644737
     17          1           0       -2.860647   -2.189901   -0.319462
     18          1           0       -2.062345   -1.780258    1.215757
     19          1           0        0.185930   -2.799494   -2.326065
     20          1           0       -1.576624   -2.998679   -2.240881
     21          1           0       -0.517754   -4.124686   -1.355642
     22         53           0       -0.079596    2.175308    0.000112
 ---------------------------------------------------------------------
                    Distance matrix (angstroms):
                    1          2          3          4          5
     1  B    0.000000
     2  O    1.368585   0.000000
     3  O    1.368589   2.273005   0.000000
     4  C    2.268650   1.438898   2.339980   0.000000
     5  C    2.268646   2.339986   1.438890   1.566832   0.000000
     6  C    3.083921   2.379692   3.133229   1.524409   2.577469
     7  C    3.511818   2.406191   3.653384   1.516763   2.600140
     8  C    3.083922   3.133266   2.379689   2.577489   1.524406
     9  C    3.511803   3.653364   2.406173   2.600112   1.516761
    10  H    4.030825   3.356109   3.806589   2.186332   2.953747
    11  H    3.532863   2.576270   3.936684   2.146640   3.506066
    12  H    2.907968   2.666318   2.867983   2.177274   2.756751
    13  H    4.006019   2.699881   4.417286   2.151194   3.538107
    14  H    4.331013   3.368172   4.176401   2.167705   2.877076
    15  H    3.622891   2.638169   3.821538   2.174307   2.875769
    16  H    4.030822   3.806622   3.356100   2.953761   2.186325
    17  H    3.532869   3.936721   2.576276   3.506085   2.146645
    18  H    2.907974   2.868039   2.666322   2.756786   2.177274
    19  H    3.622874   3.821468   2.638174   2.875680   2.174298
    20  H    4.005973   4.417262   2.699825   3.538089   2.151195
    21  H    4.331026   4.176427   3.368164   2.877099   2.167712
    22  I    2.210000   3.182347   3.182350   4.409250   4.409240
                    6          7          8          9         10
     6  C    0.000000
     7  C    2.495566   0.000000
     8  C    3.899846   2.897760   0.000000
     9  C    2.897682   3.513037   2.495572   0.000000
    10  H    1.099531   2.748313   4.176777   2.789492   0.000000
    11  H    1.099371   2.739422   4.709254   3.988305   1.784199
    12  H    1.099699   3.461189   4.247608   2.892293   1.786772
    13  H    2.664702   1.099579   3.960900   4.415525   2.967599
    14  H    2.815045   1.100623   3.086094   3.349439   2.621455
    15  H    3.458702   1.097235   2.624102   4.010115   3.797606
    16  H    4.176777   2.789572   1.099530   2.748314   4.206627
    17  H    4.709243   3.988380   1.099371   2.739439   4.962837
    18  H    4.247633   2.892388   1.099699   3.461193   4.712372
    19  H    2.623926   4.010030   3.458707   1.097235   2.508930
    20  H    3.960806   4.415576   2.664753   1.099581   3.874843
    21  H    3.086104   3.349475   2.815021   1.100623   2.623586
    22  I    4.995516   5.536968   4.995484   5.536960   6.027455
                   11         12         13         14         15
    11  H    0.000000
    12  H    1.778203   0.000000
    13  H    2.448344   3.697096   0.000000
    14  H    3.210364   3.807137   1.781221   0.000000
    15  H    3.698564   4.317185   1.775817   1.786904   0.000000
    16  H    4.962850   4.712347   3.874930   2.623576   2.509120
    17  H    5.598533   4.864562   5.050730   4.112230   3.701024
    18  H    4.864602   4.651586   3.826759   3.372839   2.284820
    19  H    3.700844   2.284646   4.733943   3.916444   4.682189
    20  H    5.050640   3.826611   5.389554   4.236109   4.734105
    21  H    4.112242   3.372837   4.236094   2.848972   3.916547
    22  I    5.185727   4.588677   5.833867   6.459086   5.498184
                   16         17         18         19         20
    16  H    0.000000
    17  H    1.784195   0.000000
    18  H    1.786774   1.778199   0.000000
    19  H    3.797591   3.698606   4.317185   0.000000
    20  H    2.967672   2.448405   3.697137   1.775817   0.000000
    21  H    2.621419   3.210328   3.807124   1.786904   1.781220
    22  I    6.027423   5.185695   4.588637   5.498205   5.833805
                   21         22
    21  H    0.000000
    22  I    6.459100   0.000000
 Stoichiometry    C6H12BIO2
 Framework group  C1[X(C6H12BIO2)]
 Deg. of freedom    60
 Full point group                 C1      NOp   1
 Largest Abelian subgroup         C1      NOp   1
 Largest concise Abelian subgroup C1      NOp   1
                         Standard orientation:                         
 ---------------------------------------------------------------------
 Center     Atomic      Atomic             Coordinates (Angstroms)
 Number     Number       Type             X           Y           Z
 ---------------------------------------------------------------------
      1          5           0        0.164738   -0.000008   -0.000011
      2          8           0       -0.597751   -1.061307    0.406537
      3          8           0       -0.597755    1.061289   -0.406566
      4          6           0       -1.964357   -0.781576    0.053597
      5          6           0       -1.964345    0.781586   -0.053577
      6          6           0       -2.224508   -1.469529   -1.281642
      7          6           0       -2.876225   -1.349548    1.124334
      8          6           0       -2.224455    1.469576    1.281648
      9          6           0       -2.876224    1.349527   -1.124316
     10          1           0       -3.273839   -1.371070   -1.594980
     11          1           0       -1.990577   -2.538815   -1.179078
     12          1           0       -1.580856   -1.056596   -2.071918
     13          1           0       -2.799450   -2.446429    1.129943
     14          1           0       -3.925313   -1.081055    0.927618
     15          1           0       -2.600108   -0.987556    2.122656
     16          1           0       -3.273779    1.371137    1.595006
     17          1           0       -1.990515    2.538858    1.179059
     18          1           0       -1.580789    1.056659    2.071921
     19          1           0       -2.600173    0.987426   -2.122617
     20          1           0       -2.799372    2.446404   -1.130029
     21          1           0       -3.925325    1.081131   -0.927536
     22         53           0        2.374738   -0.000002   -0.000000
 ---------------------------------------------------------------------
 Rotational constants (GHZ):           1.7625005           0.3855033           0.3641713
 Leave Link  202 at Thu Apr 25 01:55:20 2024, MaxMem= 10737418240 cpu:               0.2 elap:               0.0
 (Enter /lustre/home/acct-chenxiangyang/chenxiangyang-user1/software/g16/l301.exe)
 Standard basis: def2SVP (5D, 7F)
 Ernie: Thresh=  0.10000D-02 Tol=  0.10000D-05 Strict=F.
 There are   223 symmetry adapted cartesian basis functions of A   symmetry.
 There are   212 symmetry adapted basis functions of A   symmetry.
   212 basis functions,   376 primitive gaussians,   223 cartesian basis functions
    47 alpha electrons       47 beta electrons
       nuclear repulsion energy       711.3302423519 Hartrees.
 IExCor= 1009 DFT=T Ex+Corr=PBE1PBE ExCW=0 ScaHFX=  0.250000
 ScaDFX=  0.750000  0.750000  1.000000  1.000000 ScalE2=  1.000000  1.000000
 IRadAn=      5 IRanWt=     -1 IRanGd=            0 ICorTp=0 IEmpDi=141
 NAtoms=   22 NActive=   22 NUniq=   22 SFac= 1.00D+00 NAtFMM=   60 NAOKFM=F Big=F
 Integral buffers will be    131072 words long.
 Raffenetti 2 integral format.
 Two-electron integral symmetry is turned on.
 R6Disp:  Grimme-D3(BJ) Dispersion energy=       -0.0216742559 Hartrees.
 Nuclear repulsion after empirical dispersion term =      711.3085680960 Hartrees.
 Leave Link  301 at Thu Apr 25 01:55:20 2024, MaxMem= 10737418240 cpu:               2.0 elap:               0.1
 (Enter /lustre/home/acct-chenxiangyang/chenxiangyang-user1/software/g16/l302.exe)
 NPDir=0 NMtPBC=     1 NCelOv=     1 NCel=       1 NClECP=     1 NCelD=      1
         NCelK=      1 NCelE2=     1 NClLst=     1 CellRange=     0.0.
 One-electron integrals computed using PRISM.
 One-electron integral symmetry used in STVInt
   1 Symmetry operations used in ECPInt.
 ECPInt:  NShTT=    5050 NPrTT=   18521 LenC2=    4988 LenP2D=   14409.
 LDataN:  DoStor=T MaxTD1= 6 Len=  172
 NBasis=   212 RedAO= T EigKep=  7.35D-04  NBF=   212
 NBsUse=   212 1.00D-06 EigRej= -1.00D+00 NBFU=   212
 Precomputing XC quadrature grid using
 IXCGrd= 4 IRadAn=           5 IRanWt=          -1 IRanGd=           0 AccXCQ= 0.00D+00.
 Defaulting to unpruned grid for atomic number  53.
 Generated NRdTot=       0 NPtTot=           0 NUsed=           0 NTot=          32
 NSgBfM=   223   223   223   223   223 MxSgAt=    22 MxSgA2=    22.
 Leave Link  302 at Thu Apr 25 01:55:20 2024, MaxMem= 10737418240 cpu:              11.0 elap:               0.3
 (Enter /lustre/home/acct-chenxiangyang/chenxiangyang-user1/software/g16/l303.exe)
 DipDrv:  MaxL=1.
 Leave Link  303 at Thu Apr 25 01:55:20 2024, MaxMem= 10737418240 cpu:               2.1 elap:               0.1
 (Enter /lustre/home/acct-chenxiangyang/chenxiangyang-user1/software/g16/l401.exe)
 ExpMin= 8.36D-02 ExpMax= 2.27D+03 ExpMxC= 3.41D+02 IAcc=3 IRadAn=         5 AccDes= 0.00D+00
 Harris functional with IExCor= 1009 and IRadAn=       5 diagonalized for initial guess.
 HarFok:  IExCor= 1009 AccDes= 0.00D+00 IRadAn=         5 IDoV= 1 UseB2=F ITyADJ=14
 ICtDFT=  3500011 ScaDFX=  1.000000  1.000000  1.000000  1.000000
 Defaulting to unpruned grid for atomic number  53.
 FoFCou: FMM=F IPFlag=           0 FMFlag=      100000 FMFlg1=           0
         NFxFlg=           0 DoJE=T BraDBF=F KetDBF=T FulRan=T
         wScrn=  0.000000 ICntrl=       500 IOpCl=  0 I1Cent=   200000004 NGrid=           0
         NMat0=    1 NMatS0=      1 NMatT0=    0 NMatD0=    1 NMtDS0=    0 NMtDT0=    0
 Petite list used in FoFCou.
 Harris En= -708.595746772293    
 JPrj=0 DoOrth=F DoCkMO=F.
 Leave Link  401 at Thu Apr 25 01:55:21 2024, MaxMem= 10737418240 cpu:              15.0 elap:               0.4
 (Enter /lustre/home/acct-chenxiangyang/chenxiangyang-user1/software/g16/l502.exe)
 Integral symmetry usage will be decided dynamically.
 Closed shell SCF:
 Using DIIS extrapolation, IDIIS=  1040.
 NGot= 10737418240 LenX= 10737307358 LenY= 10737257188
 Requested convergence on RMS density matrix=1.00D-08 within 128 cycles.
 Requested convergence on MAX density matrix=1.00D-06.
 Requested convergence on             energy=1.00D-06.
 No special actions if energy rises.
 Fock matrices will be formed incrementally for  20 cycles.
 Integral accuracy reduced to 1.0D-05 until final iterations.

 Cycle   1  Pass 0  IDiag  1:
 FoFJK:  IHMeth= 1 ICntrl=       0 DoSepK=F KAlg= 0 I1Cent=           0 FoldK=F
 IRaf= 970000000 NMat=       1 IRICut=       1 DoRegI=T DoRafI=F ISym2E= 0 IDoP0=0 IntGTp=1.
 FoFCou: FMM=F IPFlag=           0 FMFlag=      100000 FMFlg1=           0
         NFxFlg=           0 DoJE=F BraDBF=F KetDBF=F FulRan=T
         wScrn=  0.000000 ICntrl=         0 IOpCl=  0 I1Cent=           0 NGrid=           0
         NMat0=    1 NMatS0=      1 NMatT0=    0 NMatD0=    1 NMtDS0=    0 NMtDT0=    0
 Symmetry not used in FoFCou.
 Defaulting to unpruned grid for atomic number  53.
 Defaulting to unpruned grid for atomic number  53.
 Defaulting to unpruned grid for atomic number  53.
 Defaulting to unpruned grid for atomic number  53.
 Defaulting to unpruned grid for atomic number  53.
 Defaulting to unpruned grid for atomic number  53.
 Defaulting to unpruned grid for atomic number  53.
 Defaulting to unpruned grid for atomic number  53.
 Defaulting to unpruned grid for atomic number  53.
 Defaulting to unpruned grid for atomic number  53.
 Defaulting to unpruned grid for atomic number  53.
 Defaulting to unpruned grid for atomic number  53.
 Defaulting to unpruned grid for atomic number  53.
 Defaulting to unpruned grid for atomic number  53.
 Defaulting to unpruned grid for atomic number  53.
 Defaulting to unpruned grid for atomic number  53.
 Defaulting to unpruned grid for atomic number  53.
 Defaulting to unpruned grid for atomic number  53.
 Defaulting to unpruned grid for atomic number  53.
 Defaulting to unpruned grid for atomic number  53.
 Defaulting to unpruned grid for atomic number  53.
 Defaulting to unpruned grid for atomic number  53.
 Defaulting to unpruned grid for atomic number  53.
 Defaulting to unpruned grid for atomic number  53.
 Defaulting to unpruned grid for atomic number  53.
 Defaulting to unpruned grid for atomic number  53.
 Defaulting to unpruned grid for atomic number  53.
 Defaulting to unpruned grid for atomic number  53.
 Defaulting to unpruned grid for atomic number  53.
 Defaulting to unpruned grid for atomic number  53.
 Defaulting to unpruned grid for atomic number  53.
 Defaulting to unpruned grid for atomic number  53.
 Defaulting to unpruned grid for atomic number  53.
 Defaulting to unpruned grid for atomic number  53.
 Defaulting to unpruned grid for atomic number  53.
 Defaulting to unpruned grid for atomic number  53.
 Defaulting to unpruned grid for atomic number  53.
 Defaulting to unpruned grid for atomic number  53.
 Defaulting to unpruned grid for atomic number  53.
 Defaulting to unpruned grid for atomic number  53.
 E= -707.994708388578    
 DIIS: error= 3.11D-02 at cycle   1 NSaved=   1.
 NSaved= 1 IEnMin= 1 EnMin= -707.994708388578     IErMin= 1 ErrMin= 3.11D-02
 ErrMax= 3.11D-02  0.00D+00 EMaxC= 1.00D-01 BMatC= 2.76D-01 BMatP= 2.76D-01
 IDIUse=3 WtCom= 6.89D-01 WtEn= 3.11D-01
 Coeff-Com:  0.100D+01
 Coeff-En:   0.100D+01
 Coeff:      0.100D+01
 Gap=     0.359 Goal=   None    Shift=    0.000
 GapD=    0.359 DampG=1.000 DampE=0.500 DampFc=0.5000 IDamp=-1.
 Damping current iteration by 5.00D-01
 RMSDP=5.00D-03 MaxDP=1.43D-01              OVMax= 2.00D-01

 Cycle   2  Pass 0  IDiag  1:
 RMSU=  2.48D-03    CP:  9.87D-01
 E= -708.114515186143     Delta-E=       -0.119806797565 Rises=F Damp=T
 DIIS: error= 6.58D-03 at cycle   2 NSaved=   2.
 NSaved= 2 IEnMin= 2 EnMin= -708.114515186143     IErMin= 2 ErrMin= 6.58D-03
 ErrMax= 6.58D-03  0.00D+00 EMaxC= 1.00D-01 BMatC= 1.12D-02 BMatP= 2.76D-01
 IDIUse=3 WtCom= 9.34D-01 WtEn= 6.58D-02
 Coeff-Com:  0.602D-01 0.940D+00
 Coeff-En:   0.109D+00 0.891D+00
 Coeff:      0.634D-01 0.937D+00
 Gap=     0.336 Goal=   None    Shift=    0.000
 RMSDP=1.31D-03 MaxDP=5.08D-02 DE=-1.20D-01 OVMax= 1.07D-01

 Cycle   3  Pass 0  IDiag  1:
 RMSU=  1.29D-03    CP:  9.85D-01  9.07D-01
 E= -708.255678805001     Delta-E=       -0.141163618859 Rises=F Damp=F
 DIIS: error= 4.76D-03 at cycle   3 NSaved=   3.
 NSaved= 3 IEnMin= 3 EnMin= -708.255678805001     IErMin= 3 ErrMin= 4.76D-03
 ErrMax= 4.76D-03  0.00D+00 EMaxC= 1.00D-01 BMatC= 5.31D-03 BMatP= 1.12D-02
 IDIUse=3 WtCom= 9.52D-01 WtEn= 4.76D-02
 Coeff-Com: -0.333D-02 0.383D+00 0.620D+00
 Coeff-En:   0.000D+00 0.000D+00 0.100D+01
 Coeff:     -0.318D-02 0.365D+00 0.638D+00
 Gap=     0.289 Goal=   None    Shift=    0.000
 RMSDP=4.44D-04 MaxDP=1.48D-02 DE=-1.41D-01 OVMax= 1.95D-02

 Cycle   4  Pass 0  IDiag  1:
 RMSU=  3.43D-04    CP:  9.85D-01  9.38D-01  7.90D-01
 E= -708.258766775209     Delta-E=       -0.003087970208 Rises=F Damp=F
 DIIS: error= 2.18D-03 at cycle   4 NSaved=   4.
 NSaved= 4 IEnMin= 4 EnMin= -708.258766775209     IErMin= 4 ErrMin= 2.18D-03
 ErrMax= 2.18D-03  0.00D+00 EMaxC= 1.00D-01 BMatC= 1.27D-03 BMatP= 5.31D-03
 IDIUse=3 WtCom= 9.78D-01 WtEn= 2.18D-02
 Coeff-Com: -0.891D-02 0.582D-01 0.340D+00 0.610D+00
 Coeff-En:   0.000D+00 0.000D+00 0.198D+00 0.802D+00
 Coeff:     -0.872D-02 0.569D-01 0.337D+00 0.615D+00
 Gap=     0.285 Goal=   None    Shift=    0.000
 RMSDP=1.63D-04 MaxDP=4.79D-03 DE=-3.09D-03 OVMax= 6.23D-03

 Cycle   5  Pass 0  IDiag  1:
 RMSU=  9.87D-05    CP:  9.84D-01  9.41D-01  8.26D-01  6.52D-01
 E= -708.259776347313     Delta-E=       -0.001009572104 Rises=F Damp=F
 DIIS: error= 2.52D-04 at cycle   5 NSaved=   5.
 NSaved= 5 IEnMin= 5 EnMin= -708.259776347313     IErMin= 5 ErrMin= 2.52D-04
 ErrMax= 2.52D-04  0.00D+00 EMaxC= 1.00D-01 BMatC= 2.34D-05 BMatP= 1.27D-03
 IDIUse=3 WtCom= 9.97D-01 WtEn= 2.52D-03
 Coeff-Com: -0.251D-02 0.536D-02 0.913D-01 0.222D+00 0.684D+00
 Coeff-En:   0.000D+00 0.000D+00 0.000D+00 0.000D+00 0.100D+01
 Coeff:     -0.251D-02 0.535D-02 0.911D-01 0.221D+00 0.685D+00
 Gap=     0.285 Goal=   None    Shift=    0.000
 RMSDP=3.68D-05 MaxDP=9.21D-04 DE=-1.01D-03 OVMax= 9.47D-04

 Cycle   6  Pass 0  IDiag  1:
 RMSU=  1.98D-05    CP:  9.84D-01  9.39D-01  8.36D-01  6.77D-01  7.34D-01
 E= -708.259794023088     Delta-E=       -0.000017675774 Rises=F Damp=F
 DIIS: error= 9.60D-05 at cycle   6 NSaved=   6.
 NSaved= 6 IEnMin= 6 EnMin= -708.259794023088     IErMin= 6 ErrMin= 9.60D-05
 ErrMax= 9.60D-05  0.00D+00 EMaxC= 1.00D-01 BMatC= 3.74D-06 BMatP= 2.34D-05
 IDIUse=1 WtCom= 1.00D+00 WtEn= 0.00D+00
 Coeff-Com: -0.574D-03-0.973D-03 0.262D-01 0.789D-01 0.367D+00 0.529D+00
 Coeff:     -0.574D-03-0.973D-03 0.262D-01 0.789D-01 0.367D+00 0.529D+00
 Gap=     0.285 Goal=   None    Shift=    0.000
 RMSDP=1.05D-05 MaxDP=4.12D-04 DE=-1.77D-05 OVMax= 3.32D-04

 Cycle   7  Pass 0  IDiag  1:
 RMSU=  4.53D-06    CP:  9.84D-01  9.39D-01  8.35D-01  6.81D-01  7.81D-01
                    CP:  6.06D-01
 E= -708.259797696069     Delta-E=       -0.000003672981 Rises=F Damp=F
 DIIS: error= 1.52D-05 at cycle   7 NSaved=   7.
 NSaved= 7 IEnMin= 7 EnMin= -708.259797696069     IErMin= 7 ErrMin= 1.52D-05
 ErrMax= 1.52D-05  0.00D+00 EMaxC= 1.00D-01 BMatC= 4.43D-08 BMatP= 3.74D-06
 IDIUse=1 WtCom= 1.00D+00 WtEn= 0.00D+00
 Coeff-Com: -0.381D-04-0.545D-03 0.360D-02 0.132D-01 0.757D-01 0.160D+00
 Coeff-Com:  0.748D+00
 Coeff:     -0.381D-04-0.545D-03 0.360D-02 0.132D-01 0.757D-01 0.160D+00
 Coeff:      0.748D+00
 Gap=     0.285 Goal=   None    Shift=    0.000
 RMSDP=1.79D-06 MaxDP=6.45D-05 DE=-3.67D-06 OVMax= 6.44D-05

 Initial convergence to 1.0D-05 achieved.  Increase integral accuracy.
 Cycle   8  Pass 1  IDiag  1:
 E= -708.259792789691     Delta-E=        0.000004906377 Rises=F Damp=F
 DIIS: error= 3.27D-05 at cycle   1 NSaved=   1.
 NSaved= 1 IEnMin= 1 EnMin= -708.259792789691     IErMin= 1 ErrMin= 3.27D-05
 ErrMax= 3.27D-05  0.00D+00 EMaxC= 1.00D-01 BMatC= 6.83D-08 BMatP= 6.83D-08
 IDIUse=1 WtCom= 1.00D+00 WtEn= 0.00D+00
 Coeff-Com:  0.100D+01
 Coeff:      0.100D+01
 Gap=     0.285 Goal=   None    Shift=    0.000
 RMSDP=1.79D-06 MaxDP=6.45D-05 DE= 4.91D-06 OVMax= 5.18D-05

 Cycle   9  Pass 1  IDiag  1:
 RMSU=  1.04D-05    CP:  1.00D+00
 E= -708.259792850341     Delta-E=       -0.000000060650 Rises=F Damp=F
 DIIS: error= 2.59D-06 at cycle   2 NSaved=   2.
 NSaved= 2 IEnMin= 2 EnMin= -708.259792850341     IErMin= 2 ErrMin= 2.59D-06
 ErrMax= 2.59D-06  0.00D+00 EMaxC= 1.00D-01 BMatC= 1.49D-09 BMatP= 6.83D-08
 IDIUse=1 WtCom= 1.00D+00 WtEn= 0.00D+00
 Coeff-Com:  0.249D-01 0.975D+00
 Coeff:      0.249D-01 0.975D+00
 Gap=     0.285 Goal=   None    Shift=    0.000
 RMSDP=5.11D-07 MaxDP=1.72D-05 DE=-6.06D-08 OVMax= 1.53D-05

 Cycle  10  Pass 1  IDiag  1:
 RMSU=  4.92D-07    CP:  1.00D+00  1.01D+00
 E= -708.259792851072     Delta-E=       -0.000000000731 Rises=F Damp=F
 DIIS: error= 2.21D-06 at cycle   3 NSaved=   3.
 NSaved= 3 IEnMin= 3 EnMin= -708.259792851072     IErMin= 3 ErrMin= 2.21D-06
 ErrMax= 2.21D-06  0.00D+00 EMaxC= 1.00D-01 BMatC= 8.68D-10 BMatP= 1.49D-09
 IDIUse=1 WtCom= 1.00D+00 WtEn= 0.00D+00
 Coeff-Com: -0.909D-02 0.430D+00 0.579D+00
 Coeff:     -0.909D-02 0.430D+00 0.579D+00
 Gap=     0.285 Goal=   None    Shift=    0.000
 RMSDP=2.04D-07 MaxDP=5.85D-06 DE=-7.31D-10 OVMax= 8.48D-06

 Cycle  11  Pass 1  IDiag  1:
 RMSU=  1.07D-07    CP:  1.00D+00  1.02D+00  6.60D-01
 E= -708.259792851969     Delta-E=       -0.000000000896 Rises=F Damp=F
 DIIS: error= 2.87D-07 at cycle   4 NSaved=   4.
 NSaved= 4 IEnMin= 4 EnMin= -708.259792851969     IErMin= 4 ErrMin= 2.87D-07
 ErrMax= 2.87D-07  0.00D+00 EMaxC= 1.00D-01 BMatC= 3.87D-11 BMatP= 8.68D-10
 IDIUse=1 WtCom= 1.00D+00 WtEn= 0.00D+00
 Coeff-Com: -0.492D-02 0.173D+00 0.271D+00 0.561D+00
 Coeff:     -0.492D-02 0.173D+00 0.271D+00 0.561D+00
 Gap=     0.285 Goal=   None    Shift=    0.000
 RMSDP=3.93D-08 MaxDP=1.92D-06 DE=-8.96D-10 OVMax= 1.63D-06

 Cycle  12  Pass 1  IDiag  1:
 RMSU=  3.52D-08    CP:  1.00D+00  1.02D+00  6.64D-01  8.44D-01
 E= -708.259792852006     Delta-E=       -0.000000000037 Rises=F Damp=F
 DIIS: error= 5.84D-08 at cycle   5 NSaved=   5.
 NSaved= 5 IEnMin= 5 EnMin= -708.259792852006     IErMin= 5 ErrMin= 5.84D-08
 ErrMax= 5.84D-08  0.00D+00 EMaxC= 1.00D-01 BMatC= 1.16D-12 BMatP= 3.87D-11
 IDIUse=1 WtCom= 1.00D+00 WtEn= 0.00D+00
 Coeff-Com: -0.483D-03 0.599D-02 0.175D-01 0.151D+00 0.826D+00
 Coeff:     -0.483D-03 0.599D-02 0.175D-01 0.151D+00 0.826D+00
 Gap=     0.285 Goal=   None    Shift=    0.000
 RMSDP=9.65D-09 MaxDP=4.53D-07 DE=-3.71D-11 OVMax= 4.12D-07

 SCF Done:  E(RPBE1PBE) =  -708.259792852     A.U. after   12 cycles
            NFock= 12  Conv=0.97D-08     -V/T= 2.3622
 KE= 5.199502875331D+02 PE=-3.009332932893D+03 EE= 1.069814284412D+03
 Leave Link  502 at Thu Apr 25 01:55:25 2024, MaxMem= 10737418240 cpu:             170.1 elap:               4.3
 (Enter /lustre/home/acct-chenxiangyang/chenxiangyang-user1/software/g16/l601.exe)
 Copying SCF densities to generalized density rwf, IOpCl= 0 IROHF=0.

 **********************************************************************

            Population analysis using the SCF density.

 **********************************************************************

 Orbital symmetries:
       Occupied  (A) (A) (A) (A) (A) (A) (A) (A) (A) (A) (A) (A)
                 (A) (A) (A) (A) (A) (A) (A) (A) (A) (A) (A) (A)
                 (A) (A) (A) (A) (A) (A) (A) (A) (A) (A) (A) (A)
                 (A) (A) (A) (A) (A) (A) (A) (A) (A) (A) (A)
       Virtual   (A) (A) (A) (A) (A) (A) (A) (A) (A) (A) (A) (A)
                 (A) (A) (A) (A) (A) (A) (A) (A) (A) (A) (A) (A)
                 (A) (A) (A) (A) (A) (A) (A) (A) (A) (A) (A) (A)
                 (A) (A) (A) (A) (A) (A) (A) (A) (A) (A) (A) (A)
                 (A) (A) (A) (A) (A) (A) (A) (A) (A) (A) (A) (A)
                 (A) (A) (A) (A) (A) (A) (A) (A) (A) (A) (A) (A)
                 (A) (A) (A) (A) (A) (A) (A) (A) (A) (A) (A) (A)
                 (A) (A) (A) (A) (A) (A) (A) (A) (A) (A) (A) (A)
                 (A) (A) (A) (A) (A) (A) (A) (A) (A) (A) (A) (A)
                 (A) (A) (A) (A) (A) (A) (A) (A) (A) (A) (A) (A)
                 (A) (A) (A) (A) (A) (A) (A) (A) (A) (A) (A) (A)
                 (A) (A) (A) (A) (A) (A) (A) (A) (A) (A) (A) (A)
                 (A) (A) (A) (A) (A) (A) (A) (A) (A) (A) (A) (A)
                 (A) (A) (A) (A) (A) (A) (A) (A) (A)
 The electronic state is 1-A.
 Alpha  occ. eigenvalues --  -19.23379 -19.23370 -10.31092 -10.31079 -10.24080
 Alpha  occ. eigenvalues --  -10.24079 -10.23867 -10.23865  -6.88436  -6.87217
 Alpha  occ. eigenvalues --   -4.89940  -4.88890  -4.88761  -1.92648  -1.92328
 Alpha  occ. eigenvalues --   -1.92217  -1.91311  -1.91308  -1.10705  -1.03113
 Alpha  occ. eigenvalues --   -0.84124  -0.78245  -0.73528  -0.70570  -0.70392
 Alpha  occ. eigenvalues --   -0.64605  -0.59045  -0.57920  -0.50628  -0.50096
 Alpha  occ. eigenvalues --   -0.47887  -0.46873  -0.43066  -0.42799  -0.42566
 Alpha  occ. eigenvalues --   -0.42518  -0.40396  -0.39297  -0.39223  -0.37758
 Alpha  occ. eigenvalues --   -0.36883  -0.36440  -0.35484  -0.33558  -0.30144
 Alpha  occ. eigenvalues --   -0.27148  -0.26691
 Alpha virt. eigenvalues --    0.01819   0.02215   0.04901   0.08924   0.09561
 Alpha virt. eigenvalues --    0.10131   0.10739   0.11651   0.13116   0.13462
 Alpha virt. eigenvalues --    0.14463   0.15210   0.15872   0.16648   0.18059
 Alpha virt. eigenvalues --    0.18256   0.20593   0.21241   0.22505   0.22883
 Alpha virt. eigenvalues --    0.24609   0.27558   0.29169   0.31816   0.33486
 Alpha virt. eigenvalues --    0.39575   0.40889   0.41144   0.41291   0.42405
 Alpha virt. eigenvalues --    0.43380   0.44562   0.44747   0.45084   0.46733
 Alpha virt. eigenvalues --    0.49252   0.50312   0.51914   0.52102   0.54610
 Alpha virt. eigenvalues --    0.56423   0.56470   0.58928   0.59518   0.60486
 Alpha virt. eigenvalues --    0.61163   0.63343   0.63823   0.65028   0.65129
 Alpha virt. eigenvalues --    0.66658   0.67966   0.68218   0.69342   0.69888
 Alpha virt. eigenvalues --    0.70493   0.70716   0.72351   0.72563   0.73009
 Alpha virt. eigenvalues --    0.73197   0.73956   0.75543   0.77225   0.80054
 Alpha virt. eigenvalues --    0.85901   0.94250   0.96595   0.97330   0.97839
 Alpha virt. eigenvalues --    1.01894   1.04608   1.06137   1.10323   1.12824
 Alpha virt. eigenvalues --    1.13305   1.16501   1.22496   1.24686   1.30293
 Alpha virt. eigenvalues --    1.30363   1.31963   1.35991   1.37765   1.42137
 Alpha virt. eigenvalues --    1.45705   1.50805   1.50876   1.52499   1.52676
 Alpha virt. eigenvalues --    1.54135   1.54933   1.55161   1.59937   1.65016
 Alpha virt. eigenvalues --    1.67356   1.70900   1.73074   1.75613   1.76029
 Alpha virt. eigenvalues --    1.77002   1.77249   1.79145   1.79323   1.82250
 Alpha virt. eigenvalues --    1.82332   1.84147   1.85776   1.86964   1.87503
 Alpha virt. eigenvalues --    1.88515   1.89397   1.93267   1.94536   1.96781
 Alpha virt. eigenvalues --    1.98294   1.99743   2.03575   2.07477   2.08327
 Alpha virt. eigenvalues --    2.12687   2.13853   2.15360   2.19964   2.20287
 Alpha virt. eigenvalues --    2.27347   2.30041   2.39055   2.40218   2.42895
 Alpha virt. eigenvalues --    2.43105   2.45971   2.49036   2.53016   2.53484
 Alpha virt. eigenvalues --    2.57524   2.59096   2.64243   2.71540   2.73809
 Alpha virt. eigenvalues --    2.79268   2.79353   2.82853   2.86583   2.91030
 Alpha virt. eigenvalues --    2.91898   2.92710   2.93637   2.93799   2.94589
 Alpha virt. eigenvalues --    2.97182   2.97304   3.03701   3.05798   3.11104
 Alpha virt. eigenvalues --    3.11985   3.21935   3.22576   3.36346   3.47020
 Alpha virt. eigenvalues --    3.55902  18.63406  18.64237  18.89838  56.04925
          Condensed to atoms (all electrons):
               1          2          3          4          5          6
     1  B    3.614564   0.491570   0.491569  -0.093713  -0.093714   0.013583
     2  O    0.491570   7.725534  -0.037620   0.235934  -0.057884  -0.053419
     3  O    0.491569  -0.037620   7.725540  -0.057883   0.235933  -0.002661
     4  C   -0.093713   0.235934  -0.057883   5.293723   0.194379   0.388586
     5  C   -0.093714  -0.057884   0.235933   0.194379   5.293718  -0.079454
     6  C    0.013583  -0.053419  -0.002661   0.388586  -0.079454   4.603614
     7  C    0.002907  -0.049865   0.004520   0.396414  -0.067264  -0.063723
     8  C    0.013583  -0.002660  -0.053419  -0.079454   0.388586   0.011115
     9  C    0.002907   0.004520  -0.049867  -0.067271   0.396418   0.010370
    10  H   -0.001085   0.004815  -0.000003  -0.005756  -0.012222   0.370307
    11  H   -0.002397   0.002269  -0.000172  -0.014815   0.011280   0.381262
    12  H    0.008940  -0.004950   0.002722  -0.005984  -0.010798   0.386666
    13  H   -0.001197   0.000024  -0.000151  -0.017031   0.011082  -0.008474
    14  H    0.000941   0.004296   0.000032  -0.019822  -0.002510  -0.002250
    15  H    0.000814  -0.000363   0.000036   0.012320  -0.023936   0.007992
    16  H   -0.001085  -0.000003   0.004815  -0.012221  -0.005756  -0.000265
    17  H   -0.002397  -0.000172   0.002269   0.011280  -0.014815  -0.000456
    18  H    0.008940   0.002721  -0.004949  -0.010799  -0.005984   0.000326
    19  H    0.000814   0.000036  -0.000364  -0.023941   0.012323   0.014795
    20  H   -0.001197  -0.000151   0.000024   0.011082  -0.017031  -0.000368
    21  H    0.000941   0.000032   0.004296  -0.002508  -0.019825  -0.002449
    22  I    0.349594  -0.027454  -0.027454   0.002167   0.002167   0.000052
               7          8          9         10         11         12
     1  B    0.002907   0.013583   0.002907  -0.001085  -0.002397   0.008940
     2  O   -0.049865  -0.002660   0.004520   0.004815   0.002269  -0.004950
     3  O    0.004520  -0.053419  -0.049867  -0.000003  -0.000172   0.002722
     4  C    0.396414  -0.079454  -0.067271  -0.005756  -0.014815  -0.005984
     5  C   -0.067264   0.388586   0.396418  -0.012222   0.011280  -0.010798
     6  C   -0.063723   0.011115   0.010370   0.370307   0.381262   0.386666
     7  C    4.597313   0.010368  -0.002119  -0.001663  -0.010792   0.008514
     8  C    0.010368   4.603605  -0.063723  -0.000265  -0.000456   0.000326
     9  C   -0.002119  -0.063723   4.597322   0.008540   0.000225  -0.004692
    10  H   -0.001663  -0.000265   0.008540   0.635305  -0.017425  -0.023400
    11  H   -0.010792  -0.000456   0.000225  -0.017425   0.607846  -0.019754
    12  H    0.008514   0.000326  -0.004692  -0.023400  -0.019754   0.608964
    13  H    0.384292  -0.000368  -0.000428  -0.000487   0.005630  -0.000009
    14  H    0.381549  -0.002448   0.000589   0.001805  -0.000313  -0.000119
    15  H    0.365367   0.014791   0.000195  -0.000114  -0.000004  -0.000424
    16  H    0.008540   0.370306  -0.001664   0.000006   0.000010  -0.000013
    17  H    0.000225   0.381264  -0.010791   0.000010   0.000015  -0.000026
    18  H   -0.004689   0.386664   0.008514  -0.000013  -0.000026   0.000010
    19  H    0.000195   0.007992   0.365368  -0.001596  -0.000147   0.000733
    20  H   -0.000428  -0.008474   0.384290   0.000121  -0.000002  -0.000105
    21  H    0.000589  -0.002250   0.381550  -0.000312  -0.000052   0.000302
    22  I   -0.000057   0.000052  -0.000057   0.000000  -0.000106   0.000113
              13         14         15         16         17         18
     1  B   -0.001197   0.000941   0.000814  -0.001085  -0.002397   0.008940
     2  O    0.000024   0.004296  -0.000363  -0.000003  -0.000172   0.002721
     3  O   -0.000151   0.000032   0.000036   0.004815   0.002269  -0.004949
     4  C   -0.017031  -0.019822   0.012320  -0.012221   0.011280  -0.010799
     5  C    0.011082  -0.002510  -0.023936  -0.005756  -0.014815  -0.005984
     6  C   -0.008474  -0.002250   0.007992  -0.000265  -0.000456   0.000326
     7  C    0.384292   0.381549   0.365367   0.008540   0.000225  -0.004689
     8  C   -0.000368  -0.002448   0.014791   0.370306   0.381264   0.386664
     9  C   -0.000428   0.000589   0.000195  -0.001664  -0.010791   0.008514
    10  H   -0.000487   0.001805  -0.000114   0.000006   0.000010  -0.000013
    11  H    0.005630  -0.000313  -0.000004   0.000010   0.000015  -0.000026
    12  H   -0.000009  -0.000119  -0.000424  -0.000013  -0.000026   0.000010
    13  H    0.613950  -0.020251  -0.019488   0.000121  -0.000002  -0.000105
    14  H   -0.020251   0.633880  -0.019817  -0.000312  -0.000052   0.000302
    15  H   -0.019488  -0.019817   0.617740  -0.001595  -0.000147   0.000733
    16  H    0.000121  -0.000312  -0.001595   0.635307  -0.017426  -0.023399
    17  H   -0.000002  -0.000052  -0.000147  -0.017426   0.607844  -0.019755
    18  H   -0.000105   0.000302   0.000733  -0.023399  -0.019755   0.608967
    19  H   -0.000003  -0.000016  -0.000030  -0.000114  -0.000004  -0.000424
    20  H    0.000019  -0.000108  -0.000003  -0.000487   0.005630  -0.000009
    21  H   -0.000108   0.002091  -0.000016   0.001806  -0.000313  -0.000119
    22  I   -0.000026   0.000011  -0.000043   0.000000  -0.000106   0.000113
              19         20         21         22
     1  B    0.000814  -0.001197   0.000941   0.349594
     2  O    0.000036  -0.000151   0.000032  -0.027454
     3  O   -0.000364   0.000024   0.004296  -0.027454
     4  C   -0.023941   0.011082  -0.002508   0.002167
     5  C    0.012323  -0.017031  -0.019825   0.002167
     6  C    0.014795  -0.000368  -0.002449   0.000052
     7  C    0.000195  -0.000428   0.000589  -0.000057
     8  C    0.007992  -0.008474  -0.002250   0.000052
     9  C    0.365368   0.384290   0.381550  -0.000057
    10  H   -0.001596   0.000121  -0.000312   0.000000
    11  H   -0.000147  -0.000002  -0.000052  -0.000106
    12  H    0.000733  -0.000105   0.000302   0.000113
    13  H   -0.000003   0.000019  -0.000108  -0.000026
    14  H   -0.000016  -0.000108   0.002091   0.000011
    15  H   -0.000030  -0.000003  -0.000016  -0.000043
    16  H   -0.000114  -0.000487   0.001806   0.000000
    17  H   -0.000004   0.005630  -0.000313  -0.000106
    18  H   -0.000424  -0.000009  -0.000119   0.000113
    19  H    0.617743  -0.019487  -0.019819  -0.000043
    20  H   -0.019487   0.613949  -0.020250  -0.000026
    21  H   -0.019819  -0.020250   0.633881   0.000011
    22  I   -0.000043  -0.000026   0.000011  24.873446
 Mulliken charges:
               1
     1  B    0.195119
     2  O   -0.237209
     3  O   -0.237210
     4  C   -0.134688
     5  C   -0.134694
     6  C    0.024852
     7  C    0.039807
     8  C    0.024865
     9  C    0.039802
    10  H    0.043431
    11  H    0.057924
    12  H    0.052983
    13  H    0.053010
    14  H    0.042522
    15  H    0.045990
    16  H    0.043428
    17  H    0.057924
    18  H    0.052980
    19  H    0.045988
    20  H    0.053011
    21  H    0.042522
    22  I   -0.172356
 Sum of Mulliken charges =  -0.00000
 Mulliken charges with hydrogens summed into heavy atoms:
               1
     1  B    0.195119
     2  O   -0.237209
     3  O   -0.237210
     4  C   -0.134688
     5  C   -0.134694
     6  C    0.179190
     7  C    0.181329
     8  C    0.179196
     9  C    0.181323
    22  I   -0.172356
 Electronic spatial extent (au):  <R**2>=           2397.1026
 Charge=             -0.0000 electrons
 Dipole moment (field-independent basis, Debye):
    X=             -4.0598    Y=              0.0000    Z=              0.0000  Tot=              4.0598
 Quadrupole moment (field-independent basis, Debye-Ang):
   XX=            -73.8981   YY=            -83.0459   ZZ=            -80.9644
   XY=              0.0001   XZ=             -0.0000   YZ=              1.8143
 Traceless Quadrupole moment (field-independent basis, Debye-Ang):
   XX=              5.4047   YY=             -3.7431   ZZ=             -1.6616
   XY=              0.0001   XZ=             -0.0000   YZ=              1.8143
 Octapole moment (field-independent basis, Debye-Ang**2):
  XXX=             93.9528  YYY=              0.0000  ZZZ=              0.0000  XYY=             29.2691
  XXY=             -0.0002  XXZ=              0.0002  XZZ=             33.0776  YZZ=             -0.0002
  YYZ=              0.0001  XYZ=              0.0603
 Hexadecapole moment (field-independent basis, Debye-Ang**3):
 XXXX=          -2346.4950 YYYY=           -580.4275 ZZZZ=           -409.1850 XXXY=             -0.0002
 XXXZ=             -0.0005 YYYX=              0.0004 YYYZ=             -2.2459 ZZZX=              0.0000
 ZZZY=             -4.0717 XXYY=           -506.2177 XXZZ=           -482.7263 YYZZ=           -172.3672
 XXYZ=             -1.5739 YYXZ=             -0.0002 ZZXY=              0.0001
 N-N= 7.113085680960D+02 E-N=-3.009332923325D+03  KE= 5.199502875331D+02
 No NMR shielding tensors so no spin-rotation constants.
 Leave Link  601 at Thu Apr 25 01:55:25 2024, MaxMem= 10737418240 cpu:               4.3 elap:               0.1
 (Enter /lustre/home/acct-chenxiangyang/chenxiangyang-user1/software/g16/l701.exe)
 ... and contract with generalized density number  0.
 Compute integral first derivatives.
 R6Disp: Adding Grimme-D3(BJ) dispersion energy 1st derivatives to the gradient.
   1 Symmetry operations used in ECPInt.
 ECPInt:  NShTT=    5050 NPrTT=   18521 LenC2=    4988 LenP2D=   14409.
 LDataN:  DoStor=T MaxTD1= 7 Len=  274
 Leave Link  701 at Thu Apr 25 01:55:26 2024, MaxMem= 10737418240 cpu:              12.8 elap:               0.3
 (Enter /lustre/home/acct-chenxiangyang/chenxiangyang-user1/software/g16/l702.exe)
 L702 exits ... SP integral derivatives will be done elsewhere.
 Leave Link  702 at Thu Apr 25 01:55:26 2024, MaxMem= 10737418240 cpu:               0.8 elap:               0.0
 (Enter /lustre/home/acct-chenxiangyang/chenxiangyang-user1/software/g16/l703.exe)
 Integral derivatives from FoFJK, PRISM(SPDF).
 Compute integral first derivatives, UseDBF=F ICtDFT=           0.
 Calling FoFJK, ICntrl=      2127 FMM=F ISym2X=0 I1Cent= 0 IOpClX= 0 NMat=1 NMatS=1 NMatT=0.
 FoFJK:  IHMeth= 1 ICntrl=    2127 DoSepK=F KAlg= 0 I1Cent=           0 FoldK=F
 IRaf=         0 NMat=       1 IRICut=       1 DoRegI=T DoRafI=F ISym2E= 0 IDoP0=0 IntGTp=1.
 FoFCou: FMM=F IPFlag=           0 FMFlag=      100000 FMFlg1=         800
         NFxFlg=           0 DoJE=F BraDBF=F KetDBF=F FulRan=T
         wScrn=  0.000000 ICntrl=      2127 IOpCl=  0 I1Cent=           0 NGrid=           0
         NMat0=    1 NMatS0=      1 NMatT0=    0 NMatD0=    1 NMtDS0=    0 NMtDT0=    0
 Symmetry not used in FoFCou.
 Defaulting to unpruned grid for atomic number  53.
 Defaulting to unpruned grid for atomic number  53.
 Defaulting to unpruned grid for atomic number  53.
 Defaulting to unpruned grid for atomic number  53.
 Defaulting to unpruned grid for atomic number  53.
 Defaulting to unpruned grid for atomic number  53.
 Defaulting to unpruned grid for atomic number  53.
 Defaulting to unpruned grid for atomic number  53.
 Defaulting to unpruned grid for atomic number  53.
 Defaulting to unpruned grid for atomic number  53.
 Defaulting to unpruned grid for atomic number  53.
 Defaulting to unpruned grid for atomic number  53.
 Defaulting to unpruned grid for atomic number  53.
 Defaulting to unpruned grid for atomic number  53.
 Defaulting to unpruned grid for atomic number  53.
 Defaulting to unpruned grid for atomic number  53.
 Defaulting to unpruned grid for atomic number  53.
 Defaulting to unpruned grid for atomic number  53.
 Defaulting to unpruned grid for atomic number  53.
 Defaulting to unpruned grid for atomic number  53.
 Defaulting to unpruned grid for atomic number  53.
 Defaulting to unpruned grid for atomic number  53.
 Defaulting to unpruned grid for atomic number  53.
 Defaulting to unpruned grid for atomic number  53.
 Defaulting to unpruned grid for atomic number  53.
 Defaulting to unpruned grid for atomic number  53.
 Defaulting to unpruned grid for atomic number  53.
 Defaulting to unpruned grid for atomic number  53.
 Defaulting to unpruned grid for atomic number  53.
 Defaulting to unpruned grid for atomic number  53.
 Defaulting to unpruned grid for atomic number  53.
 Defaulting to unpruned grid for atomic number  53.
 Defaulting to unpruned grid for atomic number  53.
 Defaulting to unpruned grid for atomic number  53.
 Defaulting to unpruned grid for atomic number  53.
 Defaulting to unpruned grid for atomic number  53.
 Defaulting to unpruned grid for atomic number  53.
 Defaulting to unpruned grid for atomic number  53.
 Defaulting to unpruned grid for atomic number  53.
 Defaulting to unpruned grid for atomic number  53.
 Leave Link  703 at Thu Apr 25 01:55:27 2024, MaxMem= 10737418240 cpu:              46.2 elap:               1.2
 (Enter /lustre/home/acct-chenxiangyang/chenxiangyang-user1/software/g16/l716.exe)
 Dipole        =-1.59723606D+00 6.01588223D-06 1.95407506D-05
 ***** Axes restored to original set *****
 -------------------------------------------------------------------
 Center     Atomic                   Forces (Hartrees/Bohr)
 Number     Number              X              Y              Z
 -------------------------------------------------------------------
      1        5          -0.000000079   -0.006328859   -0.000001679
      2        8          -0.002517797    0.015659918   -0.001720482
      3        8           0.002517191    0.015665192    0.001723998
      4        6           0.001084062   -0.002921147   -0.001763375
      5        6          -0.001081423   -0.002925120    0.001762271
      6        6           0.000097657    0.000853036    0.000275163
      7        6          -0.000087252    0.000885084    0.000462235
      8        6          -0.000096427    0.000852878   -0.000272969
      9        6           0.000083627    0.000883929   -0.000466159
     10        1          -0.000310855    0.000296722    0.000158094
     11        1          -0.000074157   -0.000050587   -0.000098550
     12        1           0.000188044   -0.000092055   -0.000140858
     13        1          -0.000104960   -0.000029087   -0.000158847
     14        1           0.000019715    0.000423514   -0.000275724
     15        1           0.000015081   -0.000110940    0.000027549
     16        1           0.000310815    0.000295665   -0.000156795
     17        1           0.000074723   -0.000050576    0.000097804
     18        1          -0.000187296   -0.000092473    0.000141273
     19        1          -0.000017025   -0.000111553   -0.000028159
     20        1           0.000105581   -0.000029184    0.000160001
     21        1          -0.000019217    0.000423605    0.000276510
     22       53          -0.000000009   -0.023497961   -0.000001299
 -------------------------------------------------------------------
 Cartesian Forces:  Max     0.023497961 RMS     0.004141303
 Leave Link  716 at Thu Apr 25 01:55:27 2024, MaxMem= 10737418240 cpu:               1.1 elap:               0.0
 (Enter /lustre/home/acct-chenxiangyang/chenxiangyang-user1/software/g16/l103.exe)

 GradGradGradGradGradGradGradGradGradGradGradGradGradGradGradGradGradGrad
 Berny optimization.
 FormGI is forming the generalized inverse of G from B-inverse, IUseBI=4.
 Internal  Forces:  Max     0.023497961 RMS     0.003166160
 Search for a local minimum.
 Step number   1 out of a maximum of  128
 All quantities printed in internal units (Hartrees-Bohrs-Radians)
 RMS Force = .31662D-02 SwitMx=.10000D-02 MixMth= 1
 Mixed Optimization -- RFO/linear search
 Second derivative matrix not updated -- first step.
 ITU=  0
     Eigenvalues ---    0.00443   0.00443   0.00544   0.00544   0.00717
     Eigenvalues ---    0.01963   0.02637   0.03899   0.04136   0.05476
     Eigenvalues ---    0.05476   0.05588   0.05588   0.05668   0.05817
     Eigenvalues ---    0.05817   0.05825   0.05825   0.06254   0.07507
     Eigenvalues ---    0.10817   0.11136   0.12592   0.14847   0.16000
     Eigenvalues ---    0.16000   0.16000   0.16000   0.16000   0.16000
     Eigenvalues ---    0.16000   0.16000   0.16000   0.16000   0.16000
     Eigenvalues ---    0.16000   0.17616   0.21723   0.25000   0.25430
     Eigenvalues ---    0.29946   0.29946   0.30680   0.30681   0.33613
     Eigenvalues ---    0.33613   0.33715   0.33715   0.33728   0.33729
     Eigenvalues ---    0.33734   0.33734   0.33752   0.33752   0.33990
     Eigenvalues ---    0.33990   0.37159   0.38645   0.45623   0.50119
 RFO step:  Lambda=-6.65875277D-03 EMin= 4.43069052D-03
 Linear search not attempted -- first point.
 Iteration  1 RMS(Cart)=  0.02544149 RMS(Int)=  0.00044191
 Iteration  2 RMS(Cart)=  0.00043211 RMS(Int)=  0.00006069
 Iteration  3 RMS(Cart)=  0.00000001 RMS(Int)=  0.00006069
 ITry= 1 IFail=0 DXMaxC= 2.59D-01 DCOld= 1.00D+10 DXMaxT= 3.00D-01 DXLimC= 3.00D+00 Rises=F
 Variable       Old X    -DE/DX   Delta X   Delta X   Delta X     New X
                                 (Linear)    (Quad)   (Total)
    R1        2.58625  -0.01217   0.00000  -0.02567  -0.02547   2.56079
    R2        2.58626  -0.01217   0.00000  -0.02567  -0.02547   2.56079
    R3        4.17629  -0.02350   0.00000  -0.20463  -0.20463   3.97167
    R4        2.71912   0.00134   0.00000   0.00405   0.00399   2.72312
    R5        2.71911   0.00135   0.00000   0.00406   0.00400   2.72311
    R6        2.96088   0.00117   0.00000   0.00984   0.00960   2.97048
    R7        2.88071  -0.00035   0.00000  -0.00115  -0.00115   2.87956
    R8        2.86627  -0.00065   0.00000  -0.00208  -0.00208   2.86418
    R9        2.88071  -0.00035   0.00000  -0.00115  -0.00115   2.87956
   R10        2.86626  -0.00065   0.00000  -0.00207  -0.00207   2.86419
   R11        2.07781  -0.00035   0.00000  -0.00102  -0.00102   2.07679
   R12        2.07751  -0.00013   0.00000  -0.00037  -0.00037   2.07714
   R13        2.07813   0.00007   0.00000   0.00021   0.00021   2.07834
   R14        2.07790  -0.00017   0.00000  -0.00050  -0.00050   2.07740
   R15        2.07988  -0.00033   0.00000  -0.00096  -0.00096   2.07892
   R16        2.07347  -0.00002   0.00000  -0.00007  -0.00007   2.07340
   R17        2.07781  -0.00035   0.00000  -0.00102  -0.00102   2.07679
   R18        2.07751  -0.00013   0.00000  -0.00037  -0.00037   2.07714
   R19        2.07813   0.00007   0.00000   0.00021   0.00021   2.07834
   R20        2.07347  -0.00003   0.00000  -0.00007  -0.00007   2.07340
   R21        2.07791  -0.00017   0.00000  -0.00051  -0.00051   2.07740
   R22        2.07988  -0.00033   0.00000  -0.00096  -0.00096   2.07892
    A1        1.95972   0.01292   0.00000   0.04435   0.04458   2.00431
    A2        2.16173  -0.00646   0.00000  -0.02218  -0.02229   2.13944
    A3        2.16173  -0.00646   0.00000  -0.02218  -0.02229   2.13944
    A4        1.88129  -0.00584   0.00000  -0.02478  -0.02476   1.85653
    A5        1.88129  -0.00584   0.00000  -0.02478  -0.02476   1.85653
    A6        1.78311  -0.00075   0.00000   0.00051   0.00036   1.78346
    A7        1.86418   0.00028   0.00000  -0.00286  -0.00282   1.86137
    A8        1.90185  -0.00011   0.00000  -0.00477  -0.00469   1.89716
    A9        1.97178   0.00010   0.00000   0.00222   0.00225   1.97403
   A10        2.00631   0.00042   0.00000   0.00072   0.00078   2.00709
   A11        1.92489  -0.00001   0.00000   0.00315   0.00308   1.92798
   A12        1.78311  -0.00075   0.00000   0.00051   0.00036   1.78347
   A13        1.86419   0.00028   0.00000  -0.00286  -0.00281   1.86138
   A14        1.90183  -0.00011   0.00000  -0.00476  -0.00468   1.89716
   A15        1.97180   0.00009   0.00000   0.00217   0.00220   1.97400
   A16        2.00628   0.00043   0.00000   0.00078   0.00083   2.00711
   A17        1.92490  -0.00001   0.00000   0.00314   0.00307   1.92797
   A18        1.95203  -0.00052   0.00000  -0.00358  -0.00358   1.94844
   A19        1.89749   0.00010   0.00000   0.00084   0.00083   1.89832
   A20        1.93918   0.00042   0.00000   0.00274   0.00274   1.94192
   A21        1.89310   0.00015   0.00000   0.00045   0.00045   1.89355
   A22        1.89670  -0.00001   0.00000  -0.00052  -0.00052   1.89618
   A23        1.88359  -0.00013   0.00000   0.00016   0.00016   1.88375
   A24        1.91258   0.00000   0.00000   0.00021   0.00021   1.91279
   A25        1.93427  -0.00062   0.00000  -0.00423  -0.00423   1.93004
   A26        1.94708   0.00029   0.00000   0.00205   0.00205   1.94913
   A27        1.88684   0.00022   0.00000   0.00061   0.00061   1.88745
   A28        1.88272  -0.00001   0.00000   0.00099   0.00099   1.88371
   A29        1.89864   0.00014   0.00000   0.00047   0.00048   1.89912
   A30        1.95202  -0.00052   0.00000  -0.00358  -0.00358   1.94844
   A31        1.89750   0.00010   0.00000   0.00083   0.00083   1.89833
   A32        1.93918   0.00042   0.00000   0.00273   0.00273   1.94191
   A33        1.89310   0.00015   0.00000   0.00045   0.00045   1.89355
   A34        1.89670  -0.00001   0.00000  -0.00053  -0.00052   1.89618
   A35        1.88359  -0.00013   0.00000   0.00017   0.00017   1.88375
   A36        1.94707   0.00029   0.00000   0.00207   0.00207   1.94914
   A37        1.91258   0.00000   0.00000   0.00020   0.00020   1.91278
   A38        1.93428  -0.00062   0.00000  -0.00424  -0.00424   1.93004
   A39        1.88272  -0.00001   0.00000   0.00098   0.00098   1.88370
   A40        1.89864   0.00014   0.00000   0.00048   0.00048   1.89912
   A41        1.88684   0.00022   0.00000   0.00061   0.00061   1.88745
    D1        0.16831  -0.00001   0.00000   0.00166   0.00171   0.17002
    D2       -2.97328  -0.00001   0.00000   0.00164   0.00169  -2.97160
    D3        0.16836  -0.00001   0.00000   0.00160   0.00165   0.17001
    D4       -2.97323  -0.00001   0.00000   0.00162   0.00167  -2.97156
    D5       -0.39714   0.00043   0.00000  -0.00254  -0.00251  -0.39965
    D6        1.67686   0.00031   0.00000  -0.00099  -0.00098   1.67588
    D7       -2.52705   0.00040   0.00000  -0.00141  -0.00140  -2.52845
    D8       -0.39717   0.00043   0.00000  -0.00251  -0.00247  -0.39964
    D9        1.67686   0.00031   0.00000  -0.00101  -0.00100   1.67586
   D10       -2.52704   0.00040   0.00000  -0.00145  -0.00144  -2.52848
   D11        0.47803   0.00043   0.00000   0.00940   0.00934   0.48738
   D12       -1.51821   0.00048   0.00000   0.01151   0.01149  -1.50673
   D13        2.53474   0.00002   0.00000   0.00436   0.00434   2.53908
   D14       -1.51820   0.00048   0.00000   0.01149   0.01147  -1.50673
   D15        2.76874   0.00054   0.00000   0.01361   0.01361   2.78235
   D16        0.53851   0.00008   0.00000   0.00646   0.00646   0.54497
   D17        2.53477   0.00002   0.00000   0.00432   0.00429   2.53906
   D18        0.53852   0.00007   0.00000   0.00644   0.00644   0.54496
   D19       -1.69171  -0.00039   0.00000  -0.00071  -0.00071  -1.69242
   D20        3.06747   0.00025   0.00000  -0.00109  -0.00101   3.06646
   D21        0.97754   0.00032   0.00000   0.00003   0.00011   0.97765
   D22       -1.09284   0.00017   0.00000  -0.00233  -0.00225  -1.09510
   D23       -1.26896  -0.00044   0.00000  -0.00103  -0.00110  -1.27006
   D24        2.92430  -0.00036   0.00000   0.00009   0.00002   2.92431
   D25        0.85392  -0.00052   0.00000  -0.00227  -0.00234   0.85157
   D26        1.00320   0.00022   0.00000   0.00457   0.00457   1.00777
   D27       -1.08673   0.00029   0.00000   0.00569   0.00569  -1.08104
   D28        3.12608   0.00014   0.00000   0.00333   0.00333   3.12941
   D29       -1.14203  -0.00045   0.00000  -0.00147  -0.00152  -1.14355
   D30        3.06026  -0.00034   0.00000   0.00027   0.00021   3.06047
   D31        0.94177  -0.00028   0.00000   0.00119   0.00114   0.94291
   D32       -3.13055   0.00032   0.00000   0.00063   0.00068  -3.12987
   D33        1.07173   0.00043   0.00000   0.00236   0.00241   1.07415
   D34       -1.04676   0.00049   0.00000   0.00329   0.00334  -1.04341
   D35        0.89899  -0.00018   0.00000  -0.00593  -0.00593   0.89306
   D36       -1.18191  -0.00007   0.00000  -0.00420  -0.00420  -1.18611
   D37        2.98279  -0.00001   0.00000  -0.00327  -0.00327   2.97952
   D38        3.06746   0.00025   0.00000  -0.00107  -0.00099   3.06647
   D39        0.97753   0.00032   0.00000   0.00004   0.00012   0.97765
   D40       -1.09285   0.00017   0.00000  -0.00232  -0.00224  -1.09509
   D41       -1.26895  -0.00044   0.00000  -0.00103  -0.00111  -1.27005
   D42        2.92431  -0.00037   0.00000   0.00008   0.00001   2.92431
   D43        0.85393  -0.00052   0.00000  -0.00228  -0.00236   0.85157
   D44        1.00320   0.00022   0.00000   0.00458   0.00458   1.00778
   D45       -1.08673   0.00030   0.00000   0.00569   0.00569  -1.08104
   D46        3.12607   0.00014   0.00000   0.00333   0.00333   3.12940
   D47        0.94185  -0.00028   0.00000   0.00117   0.00112   0.94296
   D48       -1.14194  -0.00045   0.00000  -0.00149  -0.00155  -1.14349
   D49        3.06034  -0.00034   0.00000   0.00025   0.00020   3.06053
   D50       -1.04665   0.00048   0.00000   0.00322   0.00328  -1.04338
   D51       -3.13044   0.00031   0.00000   0.00056   0.00061  -3.12983
   D52        1.07184   0.00043   0.00000   0.00230   0.00236   1.07419
   D53        2.98288  -0.00001   0.00000  -0.00329  -0.00329   2.97958
   D54        0.89908  -0.00018   0.00000  -0.00596  -0.00596   0.89313
   D55       -1.18182  -0.00006   0.00000  -0.00421  -0.00421  -1.18603
         Item               Value     Threshold  Converged?
 Maximum Force            0.023498     0.000450     NO 
 RMS     Force            0.003166     0.000300     NO 
 Maximum Displacement     0.259135     0.001800     NO 
 RMS     Displacement     0.025838     0.001200     NO 
 Predicted change in Energy=-3.494122D-03
 Lowest energy point so far.  Saving SCF results.
 GradGradGradGradGradGradGradGradGradGradGradGradGradGradGradGradGradGrad

 Leave Link  103 at Thu Apr 25 01:55:27 2024, MaxMem= 10737418240 cpu:               2.5 elap:               0.1
 (Enter /lustre/home/acct-chenxiangyang/chenxiangyang-user1/software/g16/l202.exe)
                          Input orientation:                          
 ---------------------------------------------------------------------
 Center     Atomic      Atomic             Coordinates (Angstroms)
 Number     Number       Type             X           Y           Z
 ---------------------------------------------------------------------
      1          5           0       -0.079602   -0.063536   -0.000012
      2          8           0        0.612937   -0.793301    0.907816
      3          8           0       -0.772172   -0.793196   -0.907906
      4          6           0        0.561439   -2.160210    0.454584
      5          6           0       -0.720722   -2.160144   -0.454797
      6          6           0        1.846945   -2.410600   -0.324355
      7          6           0        0.488797   -3.070765    1.664064
      8          6           0       -2.006214   -2.410558    0.324152
      9          6           0       -0.648148   -3.070600   -1.664360
     10          1           0        1.928505   -3.458396   -0.645687
     11          1           0        2.703918   -2.176761    0.323025
     12          1           0        1.907360   -1.764767   -1.212516
     13          1           0        1.421611   -2.993130    2.240534
     14          1           0        0.364842   -4.118528    1.352484
     15          1           0       -0.341744   -2.798244    2.327222
     16          1           0       -2.087797   -3.458379    0.645397
     17          1           0       -2.863198   -2.176636   -0.323182
     18          1           0       -2.066581   -1.764800    1.212372
     19          1           0        0.182418   -2.798097   -2.327490
     20          1           0       -1.580951   -2.992825   -2.240829
     21          1           0       -0.524297   -4.118404   -1.352877
     22         53           0       -0.079590    2.038180    0.000101
 ---------------------------------------------------------------------
                    Distance matrix (angstroms):
                    1          2          3          4          5
     1  B    0.000000
     2  O    1.355109   0.000000
     3  O    1.355111   2.283720   0.000000
     4  C    2.239114   1.441011   2.345980   0.000000
     5  C    2.239114   2.345980   1.441008   1.571913   0.000000
     6  C    3.053766   2.378377   3.133097   1.523800   2.583148
     7  C    3.483626   2.402949   3.659562   1.515661   2.604177
     8  C    3.053756   3.133071   2.378380   2.583123   1.523797
     9  C    3.483637   3.659579   2.402951   2.604195   1.515664
    10  H    3.996806   3.353628   3.803381   2.182831   2.956399
    11  H    3.509709   2.574517   3.938609   2.146578   3.511900
    12  H    2.883118   2.667412   2.866466   2.178785   2.763562
    13  H    3.981985   2.696170   4.423242   2.150179   3.542353
    14  H    4.297643   3.363988   4.178517   2.163304   2.877496
    15  H    3.600467   2.635512   3.830345   2.174764   2.879310
    16  H    3.996794   3.803350   3.353629   2.956366   2.182828
    17  H    3.509706   3.938590   2.574530   3.511884   2.146579
    18  H    2.883099   2.866424   2.667412   2.763527   2.178781
    19  H    3.600504   3.830373   2.635543   2.879321   2.174770
    20  H    3.981965   4.423237   2.696141   3.542363   2.150177
    21  H    4.297668   4.178558   3.363994   2.877544   2.163310
    22  I    2.101717   3.053003   3.053005   4.271294   4.271290
                    6          7          8          9         10
     6  C    0.000000
     7  C    2.496837   0.000000
     8  C    3.907351   2.907974   0.000000
     9  C    2.908041   3.517250   2.496833   0.000000
    10  H    1.098991   2.749176   4.185757   2.797717   0.000000
    11  H    1.099174   2.739414   4.715930   3.998124   1.783888
    12  H    1.099809   3.463043   4.253758   2.905165   1.786091
    13  H    2.664377   1.099312   3.970125   4.420192   2.967100
    14  H    2.815215   1.100116   3.097827   3.350470   2.621737
    15  H    3.459984   1.097198   2.633068   4.012578   3.798423
    16  H    4.185744   2.797635   1.098992   2.749170   4.218718
    17  H    4.715951   3.998060   1.099174   2.739412   4.970648
    18  H    4.253736   2.905086   1.099810   3.463040   4.720314
    19  H    2.633127   4.012571   3.459986   1.097197   2.512624
    20  H    3.970180   4.420195   2.664397   1.099313   3.882978
    21  H    3.097941   3.350498   2.815181   1.100116   2.636658
    22  I    4.858853   5.403069   4.858823   5.403085   5.887430
                   11         12         13         14         15
    11  H    0.000000
    12  H    1.778238   0.000000
    13  H    2.446959   3.697078   0.000000
    14  H    3.209598   3.807726   1.780987   0.000000
    15  H    3.698527   4.319293   1.776208   1.786765   0.000000
    16  H    4.970614   4.720323   3.882894   2.636514   2.512572
    17  H    5.604495   4.870193   5.059535   4.122990   3.710629
    18  H    4.870145   4.655351   3.838411   3.386958   2.299122
    19  H    3.710694   2.299210   4.737139   3.913953   4.684132
    20  H    5.059586   3.838473   5.394256   4.238540   4.737150
    21  H    4.123105   3.387073   4.238561   2.847726   3.913985
    22  I    5.061415   4.458791   5.708522   6.319139   5.373566
                   16         17         18         19         20
    16  H    0.000000
    17  H    1.783889   0.000000
    18  H    1.786091   1.778238   0.000000
    19  H    3.798409   3.698546   4.319296   0.000000
    20  H    2.967143   2.446977   3.697091   1.776204   0.000000
    21  H    2.621691   3.209548   3.807702   1.786765   1.780985
    22  I    5.887399   5.061390   4.458744   5.373631   5.708491
                   21         22
    21  H    0.000000
    22  I    6.319165   0.000000
 Stoichiometry    C6H12BIO2
 Framework group  C1[X(C6H12BIO2)]
 Deg. of freedom    60
 Full point group                 C1      NOp   1
 RotChk:  IX=3 Diff= 1.32D-03
 Largest Abelian subgroup         C1      NOp   1
 Largest concise Abelian subgroup C1      NOp   1
                         Standard orientation:                         
 ---------------------------------------------------------------------
 Center     Atomic      Atomic             Coordinates (Angstroms)
 Number     Number       Type             X           Y           Z
 ---------------------------------------------------------------------
      1          5           0        0.193040   -0.000006   -0.000017
      2          8           0       -0.536672   -1.064966    0.411932
      3          8           0       -0.536672    1.064960   -0.411956
      4          6           0       -1.903603   -0.784199    0.052515
      5          6           0       -1.903598    0.784200   -0.052525
      6          6           0       -2.154014   -1.472941   -1.283485
      7          6           0       -2.814100   -1.354524    1.121605
      8          6           0       -2.153992    1.472906    1.283493
      9          6           0       -2.814112    1.354560   -1.121587
     10          1           0       -3.201824   -1.374543   -1.600018
     11          1           0       -1.920132   -2.541904   -1.179555
     12          1           0       -1.508223   -1.060162   -2.072249
     13          1           0       -2.736425   -2.451082    1.125445
     14          1           0       -3.861880   -1.086022    0.920812
     15          1           0       -2.541558   -0.993120    2.121081
     16          1           0       -3.201798    1.374497    1.600037
     17          1           0       -1.920112    2.541873    1.179593
     18          1           0       -1.508191    1.060104    2.072238
     19          1           0       -2.541629    0.993140   -2.121072
     20          1           0       -2.736377    2.451114   -1.125438
     21          1           0       -3.861899    1.086119   -0.920750
     22         53           0        2.294757    0.000001    0.000001
 ---------------------------------------------------------------------
 Rotational constants (GHZ):           1.7554648           0.4084506           0.3842933
 Leave Link  202 at Thu Apr 25 01:55:27 2024, MaxMem= 10737418240 cpu:               0.3 elap:               0.0
 (Enter /lustre/home/acct-chenxiangyang/chenxiangyang-user1/software/g16/l301.exe)
 Standard basis: def2SVP (5D, 7F)
 Ernie: Thresh=  0.10000D-02 Tol=  0.10000D-05 Strict=F.
 There are   223 symmetry adapted cartesian basis functions of A   symmetry.
 There are   212 symmetry adapted basis functions of A   symmetry.
   212 basis functions,   376 primitive gaussians,   223 cartesian basis functions
    47 alpha electrons       47 beta electrons
       nuclear repulsion energy       719.5355833092 Hartrees.
 IExCor= 1009 DFT=T Ex+Corr=PBE1PBE ExCW=0 ScaHFX=  0.250000
 ScaDFX=  0.750000  0.750000  1.000000  1.000000 ScalE2=  1.000000  1.000000
 IRadAn=      5 IRanWt=     -1 IRanGd=            0 ICorTp=0 IEmpDi=141
 NAtoms=   22 NActive=   22 NUniq=   22 SFac= 1.00D+00 NAtFMM=   60 NAOKFM=F Big=F
 Integral buffers will be    131072 words long.
 Raffenetti 2 integral format.
 Two-electron integral symmetry is turned on.
 R6Disp:  Grimme-D3(BJ) Dispersion energy=       -0.0219457217 Hartrees.
 Nuclear repulsion after empirical dispersion term =      719.5136375874 Hartrees.
 Leave Link  301 at Thu Apr 25 01:55:28 2024, MaxMem= 10737418240 cpu:               2.1 elap:               0.1
 (Enter /lustre/home/acct-chenxiangyang/chenxiangyang-user1/software/g16/l302.exe)
 NPDir=0 NMtPBC=     1 NCelOv=     1 NCel=       1 NClECP=     1 NCelD=      1
         NCelK=      1 NCelE2=     1 NClLst=     1 CellRange=     0.0.
 One-electron integrals computed using PRISM.
 One-electron integral symmetry used in STVInt
   1 Symmetry operations used in ECPInt.
 ECPInt:  NShTT=    5050 NPrTT=   18521 LenC2=    4998 LenP2D=   14478.
 LDataN:  DoStor=T MaxTD1= 6 Len=  172
 NBasis=   212 RedAO= T EigKep=  7.44D-04  NBF=   212
 NBsUse=   212 1.00D-06 EigRej= -1.00D+00 NBFU=   212
 Precomputing XC quadrature grid using
 IXCGrd= 4 IRadAn=           5 IRanWt=          -1 IRanGd=           0 AccXCQ= 0.00D+00.
 Defaulting to unpruned grid for atomic number  53.
 Generated NRdTot=       0 NPtTot=           0 NUsed=           0 NTot=          32
 NSgBfM=   223   223   223   223   223 MxSgAt=    22 MxSgA2=    22.
 Leave Link  302 at Thu Apr 25 01:55:28 2024, MaxMem= 10737418240 cpu:              10.1 elap:               0.3
 (Enter /lustre/home/acct-chenxiangyang/chenxiangyang-user1/software/g16/l303.exe)
 DipDrv:  MaxL=1.
 Leave Link  303 at Thu Apr 25 01:55:28 2024, MaxMem= 10737418240 cpu:               1.4 elap:               0.1
 (Enter /lustre/home/acct-chenxiangyang/chenxiangyang-user1/software/g16/l401.exe)
 Initial guess from the checkpoint file:  "I-Bpin-of1.chk"
 B after Tr=    -0.000000   -0.000000   -0.000000
         Rot=    1.000000   -0.000297    0.000000   -0.000001 Ang=  -0.03 deg.
 Guess basis will be translated and rotated to current coordinates.
 JPrj=2 DoOrth=T DoCkMO=T.
 Generating alternative initial guess.
 ExpMin= 8.36D-02 ExpMax= 2.27D+03 ExpMxC= 3.41D+02 IAcc=2 IRadAn=         4 AccDes= 0.00D+00
 Harris functional with IExCor= 1009 and IRadAn=       4 diagonalized for initial guess.
 HarFok:  IExCor= 1009 AccDes= 0.00D+00 IRadAn=         4 IDoV= 1 UseB2=F ITyADJ=14
 ICtDFT=  3500011 ScaDFX=  1.000000  1.000000  1.000000  1.000000
 Defaulting to unpruned grid for atomic number  53.
 FoFCou: FMM=F IPFlag=           0 FMFlag=      100000 FMFlg1=           0
         NFxFlg=           0 DoJE=T BraDBF=F KetDBF=T FulRan=T
         wScrn=  0.000000 ICntrl=       500 IOpCl=  0 I1Cent=   200000004 NGrid=           0
         NMat0=    1 NMatS0=      1 NMatT0=    0 NMatD0=    1 NMtDS0=    0 NMtDT0=    0
 Petite list used in FoFCou.
 Harris En= -708.596094781406    
 Leave Link  401 at Thu Apr 25 01:55:28 2024, MaxMem= 10737418240 cpu:              14.8 elap:               0.4
 (Enter /lustre/home/acct-chenxiangyang/chenxiangyang-user1/software/g16/l502.exe)
 Integral symmetry usage will be decided dynamically.
 Closed shell SCF:
 Using DIIS extrapolation, IDIIS=  1040.
 NGot= 10737418240 LenX= 10737307358 LenY= 10737257188
 Requested convergence on RMS density matrix=1.00D-08 within 128 cycles.
 Requested convergence on MAX density matrix=1.00D-06.
 Requested convergence on             energy=1.00D-06.
 No special actions if energy rises.
 Fock matrices will be formed incrementally for  20 cycles.
 Integral accuracy reduced to 1.0D-05 until final iterations.

 Cycle   1  Pass 0  IDiag  1:
 FoFJK:  IHMeth= 1 ICntrl=       0 DoSepK=F KAlg= 0 I1Cent=           0 FoldK=F
 IRaf= 970000000 NMat=       1 IRICut=       1 DoRegI=T DoRafI=F ISym2E= 0 IDoP0=0 IntGTp=1.
 FoFCou: FMM=F IPFlag=           0 FMFlag=      100000 FMFlg1=           0
         NFxFlg=           0 DoJE=F BraDBF=F KetDBF=F FulRan=T
         wScrn=  0.000000 ICntrl=         0 IOpCl=  0 I1Cent=           0 NGrid=           0
         NMat0=    1 NMatS0=      1 NMatT0=    0 NMatD0=    1 NMtDS0=    0 NMtDT0=    0
 Symmetry not used in FoFCou.
 Defaulting to unpruned grid for atomic number  53.
 Defaulting to unpruned grid for atomic number  53.
 Defaulting to unpruned grid for atomic number  53.
 Defaulting to unpruned grid for atomic number  53.
 Defaulting to unpruned grid for atomic number  53.
 Defaulting to unpruned grid for atomic number  53.
 Defaulting to unpruned grid for atomic number  53.
 Defaulting to unpruned grid for atomic number  53.
 Defaulting to unpruned grid for atomic number  53.
 Defaulting to unpruned grid for atomic number  53.
 Defaulting to unpruned grid for atomic number  53.
 Defaulting to unpruned grid for atomic number  53.
 Defaulting to unpruned grid for atomic number  53.
 Defaulting to unpruned grid for atomic number  53.
 Defaulting to unpruned grid for atomic number  53.
 Defaulting to unpruned grid for atomic number  53.
 Defaulting to unpruned grid for atomic number  53.
 Defaulting to unpruned grid for atomic number  53.
 Defaulting to unpruned grid for atomic number  53.
 Defaulting to unpruned grid for atomic number  53.
 Defaulting to unpruned grid for atomic number  53.
 Defaulting to unpruned grid for atomic number  53.
 Defaulting to unpruned grid for atomic number  53.
 Defaulting to unpruned grid for atomic number  53.
 Defaulting to unpruned grid for atomic number  53.
 Defaulting to unpruned grid for atomic number  53.
 Defaulting to unpruned grid for atomic number  53.
 Defaulting to unpruned grid for atomic number  53.
 Defaulting to unpruned grid for atomic number  53.
 Defaulting to unpruned grid for atomic number  53.
 Defaulting to unpruned grid for atomic number  53.
 Defaulting to unpruned grid for atomic number  53.
 Defaulting to unpruned grid for atomic number  53.
 Defaulting to unpruned grid for atomic number  53.
 Defaulting to unpruned grid for atomic number  53.
 Defaulting to unpruned grid for atomic number  53.
 Defaulting to unpruned grid for atomic number  53.
 Defaulting to unpruned grid for atomic number  53.
 Defaulting to unpruned grid for atomic number  53.
 Defaulting to unpruned grid for atomic number  53.
 E= -708.260919852990    
 DIIS: error= 8.72D-03 at cycle   1 NSaved=   1.
 NSaved= 1 IEnMin= 1 EnMin= -708.260919852990     IErMin= 1 ErrMin= 8.72D-03
 ErrMax= 8.72D-03  0.00D+00 EMaxC= 1.00D-01 BMatC= 2.75D-03 BMatP= 2.75D-03
 IDIUse=3 WtCom= 9.13D-01 WtEn= 8.72D-02
 Coeff-Com:  0.100D+01
 Coeff-En:   0.100D+01
 Coeff:      0.100D+01
 Gap=     0.599 Goal=   None    Shift=    0.000
 GapD=    0.599 DampG=2.000 DampE=1.000 DampFc=2.0000 IDamp=-1.
 RMSDP=3.95D-04 MaxDP=1.15D-02              OVMax= 1.57D-02

 Cycle   2  Pass 0  IDiag  1:
 RMSU=  3.95D-04    CP:  1.00D+00
 E= -708.262156523740     Delta-E=       -0.001236670750 Rises=F Damp=F
 DIIS: error= 1.19D-03 at cycle   2 NSaved=   2.
 NSaved= 2 IEnMin= 2 EnMin= -708.262156523740     IErMin= 2 ErrMin= 1.19D-03
 ErrMax= 1.19D-03  0.00D+00 EMaxC= 1.00D-01 BMatC= 2.61D-04 BMatP= 2.75D-03
 IDIUse=3 WtCom= 9.88D-01 WtEn= 1.19D-02
 Coeff-Com:  0.129D+00 0.871D+00
 Coeff-En:   0.000D+00 0.100D+01
 Coeff:      0.127D+00 0.873D+00
 Gap=     0.299 Goal=   None    Shift=    0.000
 RMSDP=1.88D-04 MaxDP=1.38D-02 DE=-1.24D-03 OVMax= 1.17D-02

 Cycle   3  Pass 0  IDiag  1:
 RMSU=  1.85D-04    CP:  1.00D+00  9.24D-01
 E= -708.262170923764     Delta-E=       -0.000014400024 Rises=F Damp=F
 DIIS: error= 1.19D-03 at cycle   3 NSaved=   3.
 NSaved= 3 IEnMin= 3 EnMin= -708.262170923764     IErMin= 3 ErrMin= 1.19D-03
 ErrMax= 1.19D-03  0.00D+00 EMaxC= 1.00D-01 BMatC= 2.53D-04 BMatP= 2.61D-04
 IDIUse=3 WtCom= 9.88D-01 WtEn= 1.19D-02
 Coeff-Com: -0.346D-02 0.497D+00 0.507D+00
 Coeff-En:   0.000D+00 0.489D+00 0.511D+00
 Coeff:     -0.342D-02 0.497D+00 0.507D+00
 Gap=     0.295 Goal=   None    Shift=    0.000
 RMSDP=9.22D-05 MaxDP=6.07D-03 DE=-1.44D-05 OVMax= 5.49D-03

 Cycle   4  Pass 0  IDiag  1:
 RMSU=  2.53D-05    CP:  1.00D+00  9.89D-01  5.42D-01
 E= -708.262462352301     Delta-E=       -0.000291428537 Rises=F Damp=F
 DIIS: error= 5.11D-05 at cycle   4 NSaved=   4.
 NSaved= 4 IEnMin= 4 EnMin= -708.262462352301     IErMin= 4 ErrMin= 5.11D-05
 ErrMax= 5.11D-05  0.00D+00 EMaxC= 1.00D-01 BMatC= 7.38D-07 BMatP= 2.53D-04
 IDIUse=1 WtCom= 1.00D+00 WtEn= 0.00D+00
 Coeff-Com: -0.304D-02 0.124D+00 0.139D+00 0.740D+00
 Coeff:     -0.304D-02 0.124D+00 0.139D+00 0.740D+00
 Gap=     0.296 Goal=   None    Shift=    0.000
 RMSDP=7.93D-06 MaxDP=5.48D-04 DE=-2.91D-04 OVMax= 2.95D-04

 Initial convergence to 1.0D-05 achieved.  Increase integral accuracy.
 Cycle   5  Pass 1  IDiag  1:
 E= -708.262433235520     Delta-E=        0.000029116782 Rises=F Damp=F
 DIIS: error= 1.98D-05 at cycle   1 NSaved=   1.
 NSaved= 1 IEnMin= 1 EnMin= -708.262433235520     IErMin= 1 ErrMin= 1.98D-05
 ErrMax= 1.98D-05  0.00D+00 EMaxC= 1.00D-01 BMatC= 1.12D-07 BMatP= 1.12D-07
 IDIUse=1 WtCom= 1.00D+00 WtEn= 0.00D+00
 Coeff-Com:  0.100D+01
 Coeff:      0.100D+01
 Gap=     0.295 Goal=   None    Shift=    0.000
 RMSDP=7.93D-06 MaxDP=5.48D-04 DE= 2.91D-05 OVMax= 1.07D-04

 Cycle   6  Pass 1  IDiag  1:
 RMSU=  7.33D-06    CP:  1.00D+00
 E= -708.262433283472     Delta-E=       -0.000000047952 Rises=F Damp=F
 DIIS: error= 1.13D-05 at cycle   2 NSaved=   2.
 NSaved= 2 IEnMin= 2 EnMin= -708.262433283472     IErMin= 2 ErrMin= 1.13D-05
 ErrMax= 1.13D-05  0.00D+00 EMaxC= 1.00D-01 BMatC= 6.73D-08 BMatP= 1.12D-07
 IDIUse=1 WtCom= 1.00D+00 WtEn= 0.00D+00
 Coeff-Com:  0.426D+00 0.574D+00
 Coeff:      0.426D+00 0.574D+00
 Gap=     0.295 Goal=   None    Shift=    0.000
 RMSDP=1.53D-06 MaxDP=6.66D-05 DE=-4.80D-08 OVMax= 4.20D-05

 Cycle   7  Pass 1  IDiag  1:
 RMSU=  1.50D-06    CP:  1.00D+00  9.62D-01
 E= -708.262433339073     Delta-E=       -0.000000055601 Rises=F Damp=F
 DIIS: error= 2.90D-06 at cycle   3 NSaved=   3.
 NSaved= 3 IEnMin= 3 EnMin= -708.262433339073     IErMin= 3 ErrMin= 2.90D-06
 ErrMax= 2.90D-06  0.00D+00 EMaxC= 1.00D-01 BMatC= 4.87D-09 BMatP= 6.73D-08
 IDIUse=1 WtCom= 1.00D+00 WtEn= 0.00D+00
 Coeff-Com:  0.418D-01 0.219D+00 0.739D+00
 Coeff:      0.418D-01 0.219D+00 0.739D+00
 Gap=     0.295 Goal=   None    Shift=    0.000
 RMSDP=4.46D-07 MaxDP=1.30D-05 DE=-5.56D-08 OVMax= 1.25D-05

 Cycle   8  Pass 1  IDiag  1:
 RMSU=  3.42D-07    CP:  1.00D+00  9.82D-01  8.39D-01
 E= -708.262433342899     Delta-E=       -0.000000003826 Rises=F Damp=F
 DIIS: error= 1.08D-06 at cycle   4 NSaved=   4.
 NSaved= 4 IEnMin= 4 EnMin= -708.262433342899     IErMin= 4 ErrMin= 1.08D-06
 ErrMax= 1.08D-06  0.00D+00 EMaxC= 1.00D-01 BMatC= 5.72D-10 BMatP= 4.87D-09
 IDIUse=1 WtCom= 1.00D+00 WtEn= 0.00D+00
 Coeff-Com: -0.507D-02 0.719D-01 0.362D+00 0.571D+00
 Coeff:     -0.507D-02 0.719D-01 0.362D+00 0.571D+00
 Gap=     0.295 Goal=   None    Shift=    0.000
 RMSDP=1.43D-07 MaxDP=6.74D-06 DE=-3.83D-09 OVMax= 3.94D-06

 Cycle   9  Pass 1  IDiag  1:
 RMSU=  8.48D-08    CP:  1.00D+00  9.85D-01  8.55D-01  6.85D-01
 E= -708.262433343374     Delta-E=       -0.000000000475 Rises=F Damp=F
 DIIS: error= 3.41D-07 at cycle   5 NSaved=   5.
 NSaved= 5 IEnMin= 5 EnMin= -708.262433343374     IErMin= 5 ErrMin= 3.41D-07
 ErrMax= 3.41D-07  0.00D+00 EMaxC= 1.00D-01 BMatC= 3.74D-11 BMatP= 5.72D-10
 IDIUse=1 WtCom= 1.00D+00 WtEn= 0.00D+00
 Coeff-Com: -0.493D-02 0.247D-01 0.145D+00 0.297D+00 0.538D+00
 Coeff:     -0.493D-02 0.247D-01 0.145D+00 0.297D+00 0.538D+00
 Gap=     0.295 Goal=   None    Shift=    0.000
 RMSDP=3.11D-08 MaxDP=1.32D-06 DE=-4.75D-10 OVMax= 9.47D-07

 Cycle  10  Pass 1  IDiag  1:
 RMSU=  2.62D-08    CP:  1.00D+00  9.85D-01  8.56D-01  6.73D-01  8.13D-01
 E= -708.262433343408     Delta-E=       -0.000000000034 Rises=F Damp=F
 DIIS: error= 4.61D-08 at cycle   6 NSaved=   6.
 NSaved= 6 IEnMin= 6 EnMin= -708.262433343408     IErMin= 6 ErrMin= 4.61D-08
 ErrMax= 4.61D-08  0.00D+00 EMaxC= 1.00D-01 BMatC= 8.42D-13 BMatP= 3.74D-11
 IDIUse=1 WtCom= 1.00D+00 WtEn= 0.00D+00
 Coeff-Com: -0.104D-02 0.185D-02 0.159D-01 0.522D-01 0.158D+00 0.773D+00
 Coeff:     -0.104D-02 0.185D-02 0.159D-01 0.522D-01 0.158D+00 0.773D+00
 Gap=     0.295 Goal=   None    Shift=    0.000
 RMSDP=9.57D-09 MaxDP=2.55D-07 DE=-3.39D-11 OVMax= 6.24D-07

 SCF Done:  E(RPBE1PBE) =  -708.262433343     A.U. after   10 cycles
            NFock= 10  Conv=0.96D-08     -V/T= 2.3617
 KE= 5.201204538650D+02 PE=-3.025933297755D+03 EE= 1.078036772959D+03
 Leave Link  502 at Thu Apr 25 01:55:32 2024, MaxMem= 10737418240 cpu:             160.7 elap:               4.1
 (Enter /lustre/home/acct-chenxiangyang/chenxiangyang-user1/software/g16/l701.exe)
 ... and contract with generalized density number  0.
 Compute integral first derivatives.
 R6Disp: Adding Grimme-D3(BJ) dispersion energy 1st derivatives to the gradient.
   1 Symmetry operations used in ECPInt.
 ECPInt:  NShTT=    5050 NPrTT=   18521 LenC2=    4998 LenP2D=   14478.
 LDataN:  DoStor=T MaxTD1= 7 Len=  274
 Leave Link  701 at Thu Apr 25 01:55:33 2024, MaxMem= 10737418240 cpu:              12.8 elap:               0.3
 (Enter /lustre/home/acct-chenxiangyang/chenxiangyang-user1/software/g16/l702.exe)
 L702 exits ... SP integral derivatives will be done elsewhere.
 Leave Link  702 at Thu Apr 25 01:55:33 2024, MaxMem= 10737418240 cpu:               0.6 elap:               0.0
 (Enter /lustre/home/acct-chenxiangyang/chenxiangyang-user1/software/g16/l703.exe)
 Integral derivatives from FoFJK, PRISM(SPDF).
 Compute integral first derivatives, UseDBF=F ICtDFT=           0.
 Calling FoFJK, ICntrl=      2127 FMM=F ISym2X=0 I1Cent= 0 IOpClX= 0 NMat=1 NMatS=1 NMatT=0.
 FoFJK:  IHMeth= 1 ICntrl=    2127 DoSepK=F KAlg= 0 I1Cent=           0 FoldK=F
 IRaf=         0 NMat=       1 IRICut=       1 DoRegI=T DoRafI=F ISym2E= 0 IDoP0=0 IntGTp=1.
 FoFCou: FMM=F IPFlag=           0 FMFlag=      100000 FMFlg1=         800
         NFxFlg=           0 DoJE=F BraDBF=F KetDBF=F FulRan=T
         wScrn=  0.000000 ICntrl=      2127 IOpCl=  0 I1Cent=           0 NGrid=           0
         NMat0=    1 NMatS0=      1 NMatT0=    0 NMatD0=    1 NMtDS0=    0 NMtDT0=    0
 Symmetry not used in FoFCou.
 Defaulting to unpruned grid for atomic number  53.
 Defaulting to unpruned grid for atomic number  53.
 Defaulting to unpruned grid for atomic number  53.
 Defaulting to unpruned grid for atomic number  53.
 Defaulting to unpruned grid for atomic number  53.
 Defaulting to unpruned grid for atomic number  53.
 Defaulting to unpruned grid for atomic number  53.
 Defaulting to unpruned grid for atomic number  53.
 Defaulting to unpruned grid for atomic number  53.
 Defaulting to unpruned grid for atomic number  53.
 Defaulting to unpruned grid for atomic number  53.
 Defaulting to unpruned grid for atomic number  53.
 Defaulting to unpruned grid for atomic number  53.
 Defaulting to unpruned grid for atomic number  53.
 Defaulting to unpruned grid for atomic number  53.
 Defaulting to unpruned grid for atomic number  53.
 Defaulting to unpruned grid for atomic number  53.
 Defaulting to unpruned grid for atomic number  53.
 Defaulting to unpruned grid for atomic number  53.
 Defaulting to unpruned grid for atomic number  53.
 Defaulting to unpruned grid for atomic number  53.
 Defaulting to unpruned grid for atomic number  53.
 Defaulting to unpruned grid for atomic number  53.
 Defaulting to unpruned grid for atomic number  53.
 Defaulting to unpruned grid for atomic number  53.
 Defaulting to unpruned grid for atomic number  53.
 Defaulting to unpruned grid for atomic number  53.
 Defaulting to unpruned grid for atomic number  53.
 Defaulting to unpruned grid for atomic number  53.
 Defaulting to unpruned grid for atomic number  53.
 Defaulting to unpruned grid for atomic number  53.
 Defaulting to unpruned grid for atomic number  53.
 Defaulting to unpruned grid for atomic number  53.
 Defaulting to unpruned grid for atomic number  53.
 Defaulting to unpruned grid for atomic number  53.
 Defaulting to unpruned grid for atomic number  53.
 Defaulting to unpruned grid for atomic number  53.
 Defaulting to unpruned grid for atomic number  53.
 Defaulting to unpruned grid for atomic number  53.
 Defaulting to unpruned grid for atomic number  53.
 Leave Link  703 at Thu Apr 25 01:55:34 2024, MaxMem= 10737418240 cpu:              46.3 elap:               1.2
 (Enter /lustre/home/acct-chenxiangyang/chenxiangyang-user1/software/g16/l716.exe)
 Dipole        =-1.56153038D+00-4.75616155D-07 4.08659704D-06
 ***** Axes restored to original set *****
 -------------------------------------------------------------------
 Center     Atomic                   Forces (Hartrees/Bohr)
 Number     Number              X              Y              Z
 -------------------------------------------------------------------
      1        5          -0.000001724   -0.006783980   -0.000000284
      2        8          -0.000602932    0.002534114    0.000089651
      3        8           0.000603906    0.002535138   -0.000089894
      4        6           0.000375402   -0.002961060   -0.000394489
      5        6          -0.000373463   -0.002962711    0.000394342
      6        6          -0.000455910    0.000033938   -0.000122506
      7        6          -0.000291474   -0.000243750   -0.000284198
      8        6           0.000452691    0.000034722    0.000122162
      9        6           0.000291968   -0.000242643    0.000285571
     10        1           0.000021758   -0.000103196   -0.000114270
     11        1          -0.000075648   -0.000006040    0.000024742
     12        1          -0.000007675   -0.000044524   -0.000051698
     13        1           0.000005279    0.000018503   -0.000055737
     14        1          -0.000016252   -0.000198101    0.000093464
     15        1          -0.000063891    0.000037855   -0.000100672
     16        1          -0.000022096   -0.000102623    0.000113900
     17        1           0.000075479   -0.000006101   -0.000024824
     18        1           0.000007273   -0.000044703    0.000051097
     19        1           0.000065496    0.000038433    0.000100334
     20        1          -0.000005339    0.000018499    0.000056130
     21        1           0.000016794   -0.000197801   -0.000093035
     22       53           0.000000360    0.008646031    0.000000214
 -------------------------------------------------------------------
 Cartesian Forces:  Max     0.008646031 RMS     0.001525576
 Leave Link  716 at Thu Apr 25 01:55:34 2024, MaxMem= 10737418240 cpu:               1.1 elap:               0.0
 (Enter /lustre/home/acct-chenxiangyang/chenxiangyang-user1/software/g16/l103.exe)

 GradGradGradGradGradGradGradGradGradGradGradGradGradGradGradGradGradGrad
 Berny optimization.
 Using GEDIIS/GDIIS optimizer.
 FormGI is forming the generalized inverse of G from B-inverse, IUseBI=4.
 Internal  Forces:  Max     0.008646031 RMS     0.000938309
 Search for a local minimum.
 Step number   2 out of a maximum of  128
 All quantities printed in internal units (Hartrees-Bohrs-Radians)
 RMS Force = .93831D-03 SwitMx=.10000D-02 MixMth= 2
 Mixed Optimization -- En-DIIS/RFO-DIIS
 Update second derivatives using D2CorX and points    1    2
 DE= -2.64D-03 DEPred=-3.49D-03 R= 7.56D-01
 TightC=F SS=  1.41D+00  RLast= 2.21D-01 DXNew= 5.0454D-01 6.6209D-01
 Trust test= 7.56D-01 RLast= 2.21D-01 DXMaxT set to 5.05D-01
 ITU=  1  0
 Use linear search instead of GDIIS.
     Eigenvalues ---    0.00443   0.00443   0.00544   0.00544   0.00716
     Eigenvalues ---    0.01987   0.02637   0.03862   0.04115   0.05486
     Eigenvalues ---    0.05486   0.05593   0.05593   0.05709   0.05817
     Eigenvalues ---    0.05817   0.05826   0.05826   0.06265   0.07537
     Eigenvalues ---    0.11189   0.12606   0.14834   0.14860   0.15996
     Eigenvalues ---    0.16000   0.16000   0.16000   0.16000   0.16000
     Eigenvalues ---    0.16000   0.16000   0.16000   0.16000   0.16000
     Eigenvalues ---    0.16055   0.17619   0.21834   0.25000   0.25561
     Eigenvalues ---    0.29944   0.29946   0.30676   0.30681   0.33613
     Eigenvalues ---    0.33616   0.33715   0.33715   0.33728   0.33729
     Eigenvalues ---    0.33734   0.33736   0.33751   0.33752   0.33990
     Eigenvalues ---    0.33990   0.37182   0.37630   0.45294   0.50193
 RFO step:  Lambda=-1.23886004D-04 EMin= 4.43070180D-03
 Quartic linear search produced a step of -0.19293.
 Iteration  1 RMS(Cart)=  0.00692849 RMS(Int)=  0.00001292
 Iteration  2 RMS(Cart)=  0.00000933 RMS(Int)=  0.00001137
 Iteration  3 RMS(Cart)=  0.00000000 RMS(Int)=  0.00001137
 ITry= 1 IFail=0 DXMaxC= 5.38D-02 DCOld= 1.00D+10 DXMaxT= 5.05D-01 DXLimC= 3.00D+00 Rises=F
 Variable       Old X    -DE/DX   Delta X   Delta X   Delta X     New X
                                 (Linear)    (Quad)   (Total)
    R1        2.56079   0.00033   0.00491  -0.00558  -0.00070   2.56008
    R2        2.56079   0.00032   0.00491  -0.00558  -0.00070   2.56008
    R3        3.97167   0.00865   0.03948   0.00884   0.04832   4.01998
    R4        2.72312   0.00331  -0.00077   0.00786   0.00710   2.73021
    R5        2.72311   0.00331  -0.00077   0.00786   0.00710   2.73021
    R6        2.97048  -0.00117  -0.00185  -0.00080  -0.00260   2.96788
    R7        2.87956  -0.00028   0.00022  -0.00102  -0.00080   2.87876
    R8        2.86418  -0.00003   0.00040  -0.00057  -0.00016   2.86402
    R9        2.87956  -0.00028   0.00022  -0.00101  -0.00079   2.87877
   R10        2.86419  -0.00003   0.00040  -0.00057  -0.00017   2.86402
   R11        2.07679   0.00013   0.00020   0.00008   0.00028   2.07707
   R12        2.07714  -0.00005   0.00007  -0.00020  -0.00013   2.07701
   R13        2.07834   0.00002  -0.00004   0.00009   0.00005   2.07839
   R14        2.07740  -0.00002   0.00010  -0.00017  -0.00007   2.07733
   R15        2.07892   0.00016   0.00019   0.00017   0.00036   2.07927
   R16        2.07340  -0.00000   0.00001  -0.00003  -0.00001   2.07339
   R17        2.07679   0.00013   0.00020   0.00008   0.00028   2.07707
   R18        2.07714  -0.00005   0.00007  -0.00020  -0.00013   2.07701
   R19        2.07834   0.00002  -0.00004   0.00009   0.00005   2.07839
   R20        2.07340  -0.00000   0.00001  -0.00002  -0.00001   2.07339
   R21        2.07740  -0.00002   0.00010  -0.00017  -0.00007   2.07733
   R22        2.07892   0.00016   0.00018   0.00017   0.00036   2.07927
    A1        2.00431  -0.00098  -0.00860   0.00665  -0.00200   2.00231
    A2        2.13944   0.00049   0.00430  -0.00333   0.00100   2.14044
    A3        2.13944   0.00049   0.00430  -0.00333   0.00100   2.14044
    A4        1.85653   0.00074   0.00478  -0.00350   0.00126   1.85779
    A5        1.85653   0.00074   0.00478  -0.00350   0.00126   1.85779
    A6        1.78346  -0.00024  -0.00007  -0.00161  -0.00164   1.78182
    A7        1.86137  -0.00001   0.00054   0.00057   0.00109   1.86246
    A8        1.89716   0.00038   0.00090   0.00181   0.00270   1.89985
    A9        1.97403  -0.00005  -0.00043  -0.00144  -0.00187   1.97216
   A10        2.00709  -0.00024  -0.00015  -0.00173  -0.00189   2.00520
   A11        1.92798   0.00017  -0.00059   0.00242   0.00183   1.92980
   A12        1.78347  -0.00024  -0.00007  -0.00161  -0.00165   1.78182
   A13        1.86138  -0.00001   0.00054   0.00056   0.00109   1.86246
   A14        1.89716   0.00038   0.00090   0.00180   0.00269   1.89985
   A15        1.97400  -0.00004  -0.00042  -0.00142  -0.00184   1.97216
   A16        2.00711  -0.00025  -0.00016  -0.00174  -0.00191   2.00520
   A17        1.92797   0.00017  -0.00059   0.00242   0.00183   1.92980
   A18        1.94844   0.00007   0.00069  -0.00064   0.00005   1.94850
   A19        1.89832  -0.00009  -0.00016  -0.00014  -0.00030   1.89802
   A20        1.94192   0.00003  -0.00053   0.00081   0.00028   1.94220
   A21        1.89355   0.00002  -0.00009   0.00027   0.00019   1.89373
   A22        1.89618  -0.00007   0.00010  -0.00072  -0.00062   1.89556
   A23        1.88375   0.00004  -0.00003   0.00045   0.00042   1.88417
   A24        1.91279  -0.00008  -0.00004  -0.00032  -0.00036   1.91243
   A25        1.93004   0.00025   0.00082   0.00023   0.00104   1.93108
   A26        1.94913  -0.00018  -0.00040  -0.00047  -0.00087   1.94827
   A27        1.88745  -0.00006  -0.00012  -0.00002  -0.00014   1.88731
   A28        1.88371   0.00011  -0.00019   0.00075   0.00056   1.88427
   A29        1.89912  -0.00004  -0.00009  -0.00014  -0.00023   1.89888
   A30        1.94844   0.00007   0.00069  -0.00064   0.00005   1.94850
   A31        1.89833  -0.00009  -0.00016  -0.00015  -0.00031   1.89802
   A32        1.94191   0.00003  -0.00053   0.00081   0.00028   1.94220
   A33        1.89355   0.00002  -0.00009   0.00027   0.00018   1.89373
   A34        1.89618  -0.00007   0.00010  -0.00072  -0.00062   1.89556
   A35        1.88375   0.00004  -0.00003   0.00045   0.00042   1.88417
   A36        1.94914  -0.00019  -0.00040  -0.00047  -0.00087   1.94827
   A37        1.91278  -0.00008  -0.00004  -0.00032  -0.00036   1.91242
   A38        1.93004   0.00025   0.00082   0.00022   0.00104   1.93108
   A39        1.88370   0.00011  -0.00019   0.00076   0.00057   1.88427
   A40        1.89912  -0.00004  -0.00009  -0.00014  -0.00023   1.89888
   A41        1.88745  -0.00006  -0.00012  -0.00002  -0.00013   1.88732
    D1        0.17002  -0.00011  -0.00033   0.00176   0.00142   0.17144
    D2       -2.97160  -0.00011  -0.00033   0.00179   0.00146  -2.97014
    D3        0.17001  -0.00011  -0.00032   0.00178   0.00145   0.17146
    D4       -2.97156  -0.00011  -0.00032   0.00175   0.00141  -2.97015
    D5       -0.39965  -0.00023   0.00048  -0.00483  -0.00436  -0.40401
    D6        1.67588  -0.00040   0.00019  -0.00695  -0.00677   1.66911
    D7       -2.52845   0.00001   0.00027  -0.00282  -0.00255  -2.53101
    D8       -0.39964  -0.00023   0.00048  -0.00484  -0.00437  -0.40402
    D9        1.67586  -0.00039   0.00019  -0.00694  -0.00675   1.66911
   D10       -2.52848   0.00001   0.00028  -0.00281  -0.00254  -2.53102
   D11        0.48738  -0.00035  -0.00180   0.00557   0.00377   0.49115
   D12       -1.50673  -0.00019  -0.00222   0.00644   0.00422  -1.50251
   D13        2.53908  -0.00017  -0.00084   0.00588   0.00504   2.54412
   D14       -1.50673  -0.00019  -0.00221   0.00643   0.00422  -1.50250
   D15        2.78235  -0.00002  -0.00263   0.00730   0.00467   2.78702
   D16        0.54497  -0.00000  -0.00125   0.00674   0.00549   0.55046
   D17        2.53906  -0.00017  -0.00083   0.00589   0.00506   2.54412
   D18        0.54496  -0.00000  -0.00124   0.00675   0.00550   0.55046
   D19       -1.69242   0.00002   0.00014   0.00619   0.00632  -1.68610
   D20        3.06646   0.00030   0.00019   0.00401   0.00419   3.07065
   D21        0.97765   0.00029  -0.00002   0.00416   0.00412   0.98177
   D22       -1.09510   0.00028   0.00043   0.00321   0.00363  -1.09146
   D23       -1.27006  -0.00001   0.00021   0.00172   0.00194  -1.26812
   D24        2.92431  -0.00003  -0.00000   0.00187   0.00188   2.92619
   D25        0.85157  -0.00004   0.00045   0.00092   0.00138   0.85296
   D26        1.00777  -0.00024  -0.00088   0.00022  -0.00066   1.00711
   D27       -1.08104  -0.00025  -0.00110   0.00037  -0.00073  -1.08177
   D28        3.12941  -0.00027  -0.00064  -0.00058  -0.00122   3.12819
   D29       -1.14355  -0.00014   0.00029  -0.00137  -0.00106  -1.14461
   D30        3.06047  -0.00017  -0.00004  -0.00128  -0.00131   3.05916
   D31        0.94291  -0.00017  -0.00022  -0.00094  -0.00115   0.94176
   D32       -3.12987   0.00006  -0.00013   0.00044   0.00030  -3.12958
   D33        1.07415   0.00002  -0.00047   0.00052   0.00005   1.07419
   D34       -1.04341   0.00003  -0.00064   0.00087   0.00021  -1.04320
   D35        0.89306   0.00018   0.00114   0.00175   0.00290   0.89596
   D36       -1.18611   0.00014   0.00081   0.00184   0.00265  -1.18346
   D37        2.97952   0.00014   0.00063   0.00218   0.00281   2.98233
   D38        3.06647   0.00030   0.00019   0.00401   0.00419   3.07066
   D39        0.97765   0.00029  -0.00002   0.00416   0.00413   0.98178
   D40       -1.09509   0.00028   0.00043   0.00322   0.00364  -1.09145
   D41       -1.27005  -0.00001   0.00021   0.00173   0.00195  -1.26810
   D42        2.92431  -0.00003  -0.00000   0.00188   0.00189   2.92621
   D43        0.85157  -0.00004   0.00045   0.00093   0.00140   0.85297
   D44        1.00778  -0.00024  -0.00088   0.00023  -0.00065   1.00713
   D45       -1.08104  -0.00025  -0.00110   0.00039  -0.00071  -1.08175
   D46        3.12940  -0.00027  -0.00064  -0.00056  -0.00121   3.12820
   D47        0.94296  -0.00017  -0.00022  -0.00099  -0.00120   0.94176
   D48       -1.14349  -0.00014   0.00030  -0.00143  -0.00112  -1.14461
   D49        3.06053  -0.00017  -0.00004  -0.00134  -0.00137   3.05916
   D50       -1.04338   0.00003  -0.00063   0.00082   0.00018  -1.04320
   D51       -3.12983   0.00006  -0.00012   0.00038   0.00026  -3.12957
   D52        1.07419   0.00002  -0.00045   0.00047   0.00001   1.07420
   D53        2.97958   0.00014   0.00064   0.00211   0.00275   2.98233
   D54        0.89313   0.00017   0.00115   0.00168   0.00283   0.89596
   D55       -1.18603   0.00014   0.00081   0.00177   0.00258  -1.18345
         Item               Value     Threshold  Converged?
 Maximum Force            0.008646     0.000450     NO 
 RMS     Force            0.000938     0.000300     NO 
 Maximum Displacement     0.053762     0.001800     NO 
 RMS     Displacement     0.006927     0.001200     NO 
 Predicted change in Energy=-2.712880D-04
 Lowest energy point so far.  Saving SCF results.
 GradGradGradGradGradGradGradGradGradGradGradGradGradGradGradGradGradGrad

 Leave Link  103 at Thu Apr 25 01:55:34 2024, MaxMem= 10737418240 cpu:               1.5 elap:               0.1
 (Enter /lustre/home/acct-chenxiangyang/chenxiangyang-user1/software/g16/l202.exe)
                          Input orientation:                          
 ---------------------------------------------------------------------
 Center     Atomic      Atomic             Coordinates (Angstroms)
 Number     Number       Type             X           Y           Z
 ---------------------------------------------------------------------
      1          5           0       -0.079607   -0.060654   -0.000000
      2          8           0        0.608514   -0.791360    0.909875
      3          8           0       -0.767747   -0.791251   -0.909949
      4          6           0        0.560606   -2.161669    0.454570
      5          6           0       -0.719897   -2.161601   -0.454767
      6          6           0        1.845046   -2.408969   -0.326285
      7          6           0        0.486291   -3.076230    1.660813
      8          6           0       -2.004349   -2.408918    0.326063
      9          6           0       -0.645616   -3.076055   -1.661092
     10          1           0        1.926452   -3.455680   -0.651672
     11          1           0        2.702343   -2.177344    0.321349
     12          1           0        1.904586   -1.760328   -1.212488
     13          1           0        1.417873   -2.999263    2.239288
     14          1           0        0.363828   -4.123570    1.346564
     15          1           0       -0.346156   -2.806003    2.322505
     16          1           0       -2.085793   -3.455652    0.651367
     17          1           0       -2.861636   -2.177212   -0.321554
     18          1           0       -2.063870   -1.760345    1.212317
     19          1           0        0.186843   -2.805804   -2.322760
     20          1           0       -1.577195   -2.998991   -2.239559
     21          1           0       -0.523202   -4.123429   -1.346939
     22         53           0       -0.079560    2.066630    0.000092
 ---------------------------------------------------------------------
                    Distance matrix (angstroms):
                    1          2          3          4          5
     1  B    0.000000
     2  O    1.354737   0.000000
     3  O    1.354738   2.281635   0.000000
     4  C    2.242938   1.444765   2.346163   0.000000
     5  C    2.242935   2.346164   1.444763   1.570535   0.000000
     6  C    3.053741   2.381966   3.127997   1.523377   2.580045
     7  C    3.488873   2.408211   3.660951   1.515575   2.601367
     8  C    3.053734   3.128000   2.381965   2.580047   1.523378
     9  C    3.488873   3.660949   2.408207   2.601365   1.515574
    10  H    3.996892   3.357677   3.797973   2.182606   2.952384
    11  H    3.510397   2.579037   3.934320   2.145933   3.509177
    12  H    2.880284   2.668918   2.858672   2.178632   2.760991
    13  H    3.986512   2.701340   4.423793   2.149811   3.539727
    14  H    4.303156   3.369598   4.180510   2.164123   2.875513
    15  H    3.605831   2.639262   3.832196   2.174067   2.875443
    16  H    3.996882   3.797969   3.357676   2.952380   2.182607
    17  H    3.510399   3.934330   2.579044   3.509182   2.145935
    18  H    2.880271   2.858679   2.668913   2.761000   2.178633
    19  H    3.605836   3.832195   2.639261   2.875442   2.174068
    20  H    3.986505   4.423788   2.701331   3.539723   2.149807
    21  H    4.303156   4.180511   3.369595   2.875513   2.164123
    22  I    2.127284   3.077215   3.077216   4.300567   4.300565
                    6          7          8          9         10
     6  C    0.000000
     7  C    2.498001   0.000000
     8  C    3.904280   2.903472   0.000000
     9  C    2.903466   3.509454   2.498002   0.000000
    10  H    1.099140   2.750569   4.183644   2.789011   0.000000
    11  H    1.099107   2.740993   4.712388   3.993318   1.784074
    12  H    1.099835   3.463960   4.250598   2.904465   1.785837
    13  H    2.667037   1.099274   3.964914   4.413258   2.970625
    14  H    2.816431   1.100304   3.096727   3.340997   2.623131
    15  H    3.460504   1.097191   2.625464   4.003954   3.799020
    16  H    4.183640   2.789006   1.099140   2.750576   4.218533
    17  H    4.712388   3.993323   1.099107   2.740990   4.966815
    18  H    4.250605   2.904484   1.099835   3.463960   4.719247
    19  H    2.625458   4.003954   3.460506   1.097191   2.498222
    20  H    3.964907   4.413258   2.667033   1.099274   3.873693
    21  H    3.096725   3.340998   2.816430   1.100304   2.632506
    22  I    4.882788   5.433893   4.882786   5.433890   5.911412
                   11         12         13         14         15
    11  H    0.000000
    12  H    1.778475   0.000000
    13  H    2.450286   3.699541   0.000000
    14  H    3.210531   3.808884   1.781020   0.000000
    15  H    3.700430   4.319196   1.776534   1.786763   0.000000
    16  H    4.966813   4.719238   3.873688   2.632500   2.498216
    17  H    5.600999   4.866666   5.054491   4.120018   3.703251
    18  H    4.866673   4.650627   3.835639   3.390660   2.297055
    19  H    3.703244   2.297034   4.729179   3.902790   4.675743
    20  H    5.054483   3.835618   5.387996   4.229956   4.729179
    21  H    4.120021   3.390646   4.229957   2.835803   3.902791
    22  I    5.084634   4.478034   5.737558   6.350445   5.404371
                   16         17         18         19         20
    16  H    0.000000
    17  H    1.784073   0.000000
    18  H    1.785836   1.778474   0.000000
    19  H    3.799027   3.700429   4.319197   0.000000
    20  H    2.970634   2.450276   3.699534   1.776534   0.000000
    21  H    2.623136   3.210521   3.808886   1.786764   1.781020
    22  I    5.911406   5.084644   4.478026   5.404371   5.737549
                   21         22
    21  H    0.000000
    22  I    6.350444   0.000000
 Stoichiometry    C6H12BIO2
 Framework group  C1[X(C6H12BIO2)]
 Deg. of freedom    60
 Full point group                 C1      NOp   1
 RotChk:  IX=2 Diff= 8.31D-04
 Largest Abelian subgroup         C1      NOp   1
 Largest concise Abelian subgroup C1      NOp   1
                         Standard orientation:                         
 ---------------------------------------------------------------------
 Center     Atomic      Atomic             Coordinates (Angstroms)
 Number     Number       Type             X           Y           Z
 ---------------------------------------------------------------------
      1          5           0        0.183911    0.000001    0.000005
      2          8           0       -0.546739   -1.062020    0.416628
      3          8           0       -0.546740    1.062018   -0.416630
      4          6           0       -1.917070   -0.783450    0.053395
      5          6           0       -1.917068    0.783450   -0.053395
      6          6           0       -2.164379   -1.471069   -1.283278
      7          6           0       -2.831578   -1.350033    1.120927
      8          6           0       -2.164375    1.471072    1.283278
      9          6           0       -2.831575    1.350032   -1.120928
     10          1           0       -3.211104   -1.370611   -1.603254
     11          1           0       -1.932708   -2.540378   -1.178672
     12          1           0       -1.515777   -1.059026   -2.070154
     13          1           0       -2.754566   -2.446584    1.127765
     14          1           0       -3.878934   -1.081531    0.916914
     15          1           0       -2.561337   -0.985650    2.119938
     16          1           0       -3.211096    1.370606    1.603262
     17          1           0       -1.932716    2.540384    1.178668
     18          1           0       -1.515764    1.059040    2.070151
     19          1           0       -2.561337    0.985647   -2.119939
     20          1           0       -2.754556    2.446583   -1.127766
     21          1           0       -3.878932    1.081536   -0.916912
     22         53           0        2.311196   -0.000000   -0.000000
 ---------------------------------------------------------------------
 Rotational constants (GHZ):           1.7598975           0.4034695           0.3801220
 Leave Link  202 at Thu Apr 25 01:55:34 2024, MaxMem= 10737418240 cpu:               0.6 elap:               0.0
 (Enter /lustre/home/acct-chenxiangyang/chenxiangyang-user1/software/g16/l301.exe)
 Standard basis: def2SVP (5D, 7F)
 Ernie: Thresh=  0.10000D-02 Tol=  0.10000D-05 Strict=F.
 There are   223 symmetry adapted cartesian basis functions of A   symmetry.
 There are   212 symmetry adapted basis functions of A   symmetry.
   212 basis functions,   376 primitive gaussians,   223 cartesian basis functions
    47 alpha electrons       47 beta electrons
       nuclear repulsion energy       717.8355220251 Hartrees.
 IExCor= 1009 DFT=T Ex+Corr=PBE1PBE ExCW=0 ScaHFX=  0.250000
 ScaDFX=  0.750000  0.750000  1.000000  1.000000 ScalE2=  1.000000  1.000000
 IRadAn=      5 IRanWt=     -1 IRanGd=            0 ICorTp=0 IEmpDi=141
 NAtoms=   22 NActive=   22 NUniq=   22 SFac= 1.00D+00 NAtFMM=   60 NAOKFM=F Big=F
 Integral buffers will be    131072 words long.
 Raffenetti 2 integral format.
 Two-electron integral symmetry is turned on.
 R6Disp:  Grimme-D3(BJ) Dispersion energy=       -0.0219009682 Hartrees.
 Nuclear repulsion after empirical dispersion term =      717.8136210569 Hartrees.
 Leave Link  301 at Thu Apr 25 01:55:34 2024, MaxMem= 10737418240 cpu:               2.8 elap:               0.1
 (Enter /lustre/home/acct-chenxiangyang/chenxiangyang-user1/software/g16/l302.exe)
 NPDir=0 NMtPBC=     1 NCelOv=     1 NCel=       1 NClECP=     1 NCelD=      1
         NCelK=      1 NCelE2=     1 NClLst=     1 CellRange=     0.0.
 One-electron integrals computed using PRISM.
 One-electron integral symmetry used in STVInt
   1 Symmetry operations used in ECPInt.
 ECPInt:  NShTT=    5050 NPrTT=   18521 LenC2=    4998 LenP2D=   14472.
 LDataN:  DoStor=T MaxTD1= 6 Len=  172
 NBasis=   212 RedAO= T EigKep=  7.48D-04  NBF=   212
 NBsUse=   212 1.00D-06 EigRej= -1.00D+00 NBFU=   212
 Precomputing XC quadrature grid using
 IXCGrd= 4 IRadAn=           5 IRanWt=          -1 IRanGd=           0 AccXCQ= 0.00D+00.
 Defaulting to unpruned grid for atomic number  53.
 Generated NRdTot=       0 NPtTot=           0 NUsed=           0 NTot=          32
 NSgBfM=   223   223   223   223   223 MxSgAt=    22 MxSgA2=    22.
 Leave Link  302 at Thu Apr 25 01:55:35 2024, MaxMem= 10737418240 cpu:              10.6 elap:               0.3
 (Enter /lustre/home/acct-chenxiangyang/chenxiangyang-user1/software/g16/l303.exe)
 DipDrv:  MaxL=1.
 Leave Link  303 at Thu Apr 25 01:55:35 2024, MaxMem= 10737418240 cpu:               1.7 elap:               0.1
 (Enter /lustre/home/acct-chenxiangyang/chenxiangyang-user1/software/g16/l401.exe)
 Initial guess from the checkpoint file:  "I-Bpin-of1.chk"
 B after Tr=     0.000000    0.000000    0.000000
         Rot=    1.000000    0.000464    0.000001   -0.000000 Ang=   0.05 deg.
 Guess basis will be translated and rotated to current coordinates.
 JPrj=2 DoOrth=T DoCkMO=T.
 Generating alternative initial guess.
 ExpMin= 8.36D-02 ExpMax= 2.27D+03 ExpMxC= 3.41D+02 IAcc=2 IRadAn=         4 AccDes= 0.00D+00
 Harris functional with IExCor= 1009 and IRadAn=       4 diagonalized for initial guess.
 HarFok:  IExCor= 1009 AccDes= 0.00D+00 IRadAn=         4 IDoV= 1 UseB2=F ITyADJ=14
 ICtDFT=  3500011 ScaDFX=  1.000000  1.000000  1.000000  1.000000
 Defaulting to unpruned grid for atomic number  53.
 FoFCou: FMM=F IPFlag=           0 FMFlag=      100000 FMFlg1=           0
         NFxFlg=           0 DoJE=T BraDBF=F KetDBF=T FulRan=T
         wScrn=  0.000000 ICntrl=       500 IOpCl=  0 I1Cent=   200000004 NGrid=           0
         NMat0=    1 NMatS0=      1 NMatT0=    0 NMatD0=    1 NMtDS0=    0 NMtDT0=    0
 Petite list used in FoFCou.
 Harris En= -708.596416626828    
 Leave Link  401 at Thu Apr 25 01:55:35 2024, MaxMem= 10737418240 cpu:              13.5 elap:               0.4
 (Enter /lustre/home/acct-chenxiangyang/chenxiangyang-user1/software/g16/l502.exe)
 Integral symmetry usage will be decided dynamically.
 Closed shell SCF:
 Using DIIS extrapolation, IDIIS=  1040.
 NGot= 10737418240 LenX= 10737307358 LenY= 10737257188
 Requested convergence on RMS density matrix=1.00D-08 within 128 cycles.
 Requested convergence on MAX density matrix=1.00D-06.
 Requested convergence on             energy=1.00D-06.
 No special actions if energy rises.
 Fock matrices will be formed incrementally for  20 cycles.
 Integral accuracy reduced to 1.0D-05 until final iterations.

 Cycle   1  Pass 0  IDiag  1:
 FoFJK:  IHMeth= 1 ICntrl=       0 DoSepK=F KAlg= 0 I1Cent=           0 FoldK=F
 IRaf= 970000000 NMat=       1 IRICut=       1 DoRegI=T DoRafI=F ISym2E= 0 IDoP0=0 IntGTp=1.
 FoFCou: FMM=F IPFlag=           0 FMFlag=      100000 FMFlg1=           0
         NFxFlg=           0 DoJE=F BraDBF=F KetDBF=F FulRan=T
         wScrn=  0.000000 ICntrl=         0 IOpCl=  0 I1Cent=           0 NGrid=           0
         NMat0=    1 NMatS0=      1 NMatT0=    0 NMatD0=    1 NMtDS0=    0 NMtDT0=    0
 Symmetry not used in FoFCou.
 Defaulting to unpruned grid for atomic number  53.
 Defaulting to unpruned grid for atomic number  53.
 Defaulting to unpruned grid for atomic number  53.
 Defaulting to unpruned grid for atomic number  53.
 Defaulting to unpruned grid for atomic number  53.
 Defaulting to unpruned grid for atomic number  53.
 Defaulting to unpruned grid for atomic number  53.
 Defaulting to unpruned grid for atomic number  53.
 Defaulting to unpruned grid for atomic number  53.
 Defaulting to unpruned grid for atomic number  53.
 Defaulting to unpruned grid for atomic number  53.
 Defaulting to unpruned grid for atomic number  53.
 Defaulting to unpruned grid for atomic number  53.
 Defaulting to unpruned grid for atomic number  53.
 Defaulting to unpruned grid for atomic number  53.
 Defaulting to unpruned grid for atomic number  53.
 Defaulting to unpruned grid for atomic number  53.
 Defaulting to unpruned grid for atomic number  53.
 Defaulting to unpruned grid for atomic number  53.
 Defaulting to unpruned grid for atomic number  53.
 Defaulting to unpruned grid for atomic number  53.
 Defaulting to unpruned grid for atomic number  53.
 Defaulting to unpruned grid for atomic number  53.
 Defaulting to unpruned grid for atomic number  53.
 Defaulting to unpruned grid for atomic number  53.
 Defaulting to unpruned grid for atomic number  53.
 Defaulting to unpruned grid for atomic number  53.
 Defaulting to unpruned grid for atomic number  53.
 Defaulting to unpruned grid for atomic number  53.
 Defaulting to unpruned grid for atomic number  53.
 Defaulting to unpruned grid for atomic number  53.
 Defaulting to unpruned grid for atomic number  53.
 Defaulting to unpruned grid for atomic number  53.
 Defaulting to unpruned grid for atomic number  53.
 Defaulting to unpruned grid for atomic number  53.
 Defaulting to unpruned grid for atomic number  53.
 Defaulting to unpruned grid for atomic number  53.
 Defaulting to unpruned grid for atomic number  53.
 Defaulting to unpruned grid for atomic number  53.
 Defaulting to unpruned grid for atomic number  53.
 E= -708.262608098377    
 DIIS: error= 2.17D-03 at cycle   1 NSaved=   1.
 NSaved= 1 IEnMin= 1 EnMin= -708.262608098377     IErMin= 1 ErrMin= 2.17D-03
 ErrMax= 2.17D-03  0.00D+00 EMaxC= 1.00D-01 BMatC= 1.73D-04 BMatP= 1.73D-04
 IDIUse=3 WtCom= 9.78D-01 WtEn= 2.17D-02
 Coeff-Com:  0.100D+01
 Coeff-En:   0.100D+01
 Coeff:      0.100D+01
 Gap=     0.597 Goal=   None    Shift=    0.000
 GapD=    0.597 DampG=2.000 DampE=1.000 DampFc=2.0000 IDamp=-1.
 RMSDP=9.77D-05 MaxDP=2.78D-03              OVMax= 4.27D-03

 Cycle   2  Pass 0  IDiag  1:
 RMSU=  9.76D-05    CP:  1.00D+00
 E= -708.262710996933     Delta-E=       -0.000102898556 Rises=F Damp=F
 DIIS: error= 2.45D-04 at cycle   2 NSaved=   2.
 NSaved= 2 IEnMin= 2 EnMin= -708.262710996933     IErMin= 2 ErrMin= 2.45D-04
 ErrMax= 2.45D-04  0.00D+00 EMaxC= 1.00D-01 BMatC= 8.38D-06 BMatP= 1.73D-04
 IDIUse=3 WtCom= 9.98D-01 WtEn= 2.45D-03
 Coeff-Com:  0.566D-01 0.943D+00
 Coeff-En:   0.000D+00 0.100D+01
 Coeff:      0.565D-01 0.943D+00
 Gap=     0.294 Goal=   None    Shift=    0.000
 RMSDP=3.72D-05 MaxDP=2.45D-03 DE=-1.03D-04 OVMax= 2.49D-03

 Cycle   3  Pass 0  IDiag  1:
 RMSU=  3.71D-05    CP:  1.00D+00  9.98D-01
 E= -708.262709607308     Delta-E=        0.000001389625 Rises=F Damp=F
 DIIS: error= 2.77D-04 at cycle   3 NSaved=   3.
 NSaved= 3 IEnMin= 2 EnMin= -708.262710996933     IErMin= 2 ErrMin= 2.45D-04
 ErrMax= 2.77D-04  0.00D+00 EMaxC= 1.00D-01 BMatC= 1.09D-05 BMatP= 8.38D-06
 IDIUse=3 WtCom= 3.75D-01 WtEn= 6.25D-01
 Coeff-Com: -0.683D-02 0.537D+00 0.470D+00
 Coeff-En:   0.000D+00 0.528D+00 0.472D+00
 Coeff:     -0.257D-02 0.531D+00 0.471D+00
 Gap=     0.294 Goal=   None    Shift=    0.000
 RMSDP=2.00D-05 MaxDP=1.27D-03 DE= 1.39D-06 OVMax= 1.28D-03

 Cycle   4  Pass 0  IDiag  1:
 RMSU=  5.73D-06    CP:  1.00D+00  1.03D+00  4.92D-01
 E= -708.262722106546     Delta-E=       -0.000012499238 Rises=F Damp=F
 DIIS: error= 1.19D-05 at cycle   4 NSaved=   4.
 NSaved= 4 IEnMin= 4 EnMin= -708.262722106546     IErMin= 4 ErrMin= 1.19D-05
 ErrMax= 1.19D-05  0.00D+00 EMaxC= 1.00D-01 BMatC= 4.59D-08 BMatP= 8.38D-06
 IDIUse=1 WtCom= 1.00D+00 WtEn= 0.00D+00
 Coeff-Com: -0.334D-02 0.878D-01 0.108D+00 0.808D+00
 Coeff:     -0.334D-02 0.878D-01 0.108D+00 0.808D+00
 Gap=     0.294 Goal=   None    Shift=    0.000
 RMSDP=1.70D-06 MaxDP=8.38D-05 DE=-1.25D-05 OVMax= 5.51D-05

 Initial convergence to 1.0D-05 achieved.  Increase integral accuracy.
 Cycle   5  Pass 1  IDiag  1:
 E= -708.262687476471     Delta-E=        0.000034630074 Rises=F Damp=F
 DIIS: error= 1.88D-05 at cycle   1 NSaved=   1.
 NSaved= 1 IEnMin= 1 EnMin= -708.262687476471     IErMin= 1 ErrMin= 1.88D-05
 ErrMax= 1.88D-05  0.00D+00 EMaxC= 1.00D-01 BMatC= 5.04D-08 BMatP= 5.04D-08
 IDIUse=1 WtCom= 1.00D+00 WtEn= 0.00D+00
 Coeff-Com:  0.100D+01
 Coeff:      0.100D+01
 Gap=     0.294 Goal=   None    Shift=    0.000
 RMSDP=1.70D-06 MaxDP=8.38D-05 DE= 3.46D-05 OVMax= 5.14D-05

 Cycle   6  Pass 1  IDiag  1:
 RMSU=  7.77D-06    CP:  1.00D+00
 E= -708.262687521360     Delta-E=       -0.000000044888 Rises=F Damp=F
 DIIS: error= 4.56D-06 at cycle   2 NSaved=   2.
 NSaved= 2 IEnMin= 2 EnMin= -708.262687521360     IErMin= 2 ErrMin= 4.56D-06
 ErrMax= 4.56D-06  0.00D+00 EMaxC= 1.00D-01 BMatC= 8.10D-09 BMatP= 5.04D-08
 IDIUse=1 WtCom= 1.00D+00 WtEn= 0.00D+00
 Coeff-Com:  0.191D+00 0.809D+00
 Coeff:      0.191D+00 0.809D+00
 Gap=     0.294 Goal=   None    Shift=    0.000
 RMSDP=8.20D-07 MaxDP=2.51D-05 DE=-4.49D-08 OVMax= 2.78D-05

 Cycle   7  Pass 1  IDiag  1:
 RMSU=  8.20D-07    CP:  1.00D+00  1.00D+00
 E= -708.262687522619     Delta-E=       -0.000000001259 Rises=F Damp=F
 DIIS: error= 4.57D-06 at cycle   3 NSaved=   3.
 NSaved= 3 IEnMin= 3 EnMin= -708.262687522619     IErMin= 2 ErrMin= 4.56D-06
 ErrMax= 4.57D-06  0.00D+00 EMaxC= 1.00D-01 BMatC= 7.10D-09 BMatP= 8.10D-09
 IDIUse=1 WtCom= 1.00D+00 WtEn= 0.00D+00
 Coeff-Com: -0.492D-02 0.484D+00 0.521D+00
 Coeff:     -0.492D-02 0.484D+00 0.521D+00
 Gap=     0.294 Goal=   None    Shift=    0.000
 RMSDP=4.01D-07 MaxDP=1.16D-05 DE=-1.26D-09 OVMax= 1.26D-05

 Cycle   8  Pass 1  IDiag  1:
 RMSU=  1.86D-07    CP:  1.00D+00  1.02D+00  5.91D-01
 E= -708.262687528391     Delta-E=       -0.000000005772 Rises=F Damp=F
 DIIS: error= 5.54D-07 at cycle   4 NSaved=   4.
 NSaved= 4 IEnMin= 4 EnMin= -708.262687528391     IErMin= 4 ErrMin= 5.54D-07
 ErrMax= 5.54D-07  0.00D+00 EMaxC= 1.00D-01 BMatC= 1.39D-10 BMatP= 7.10D-09
 IDIUse=1 WtCom= 1.00D+00 WtEn= 0.00D+00
 Coeff-Com: -0.834D-02 0.204D+00 0.248D+00 0.556D+00
 Coeff:     -0.834D-02 0.204D+00 0.248D+00 0.556D+00
 Gap=     0.294 Goal=   None    Shift=    0.000
 RMSDP=6.90D-08 MaxDP=4.74D-06 DE=-5.77D-09 OVMax= 2.20D-06

 Cycle   9  Pass 1  IDiag  1:
 RMSU=  4.63D-08    CP:  1.00D+00  1.02D+00  5.81D-01  7.39D-01
 E= -708.262687528516     Delta-E=       -0.000000000125 Rises=F Damp=F
 DIIS: error= 8.70D-08 at cycle   5 NSaved=   5.
 NSaved= 5 IEnMin= 5 EnMin= -708.262687528516     IErMin= 5 ErrMin= 8.70D-08
 ErrMax= 8.70D-08  0.00D+00 EMaxC= 1.00D-01 BMatC= 4.29D-12 BMatP= 1.39D-10
 IDIUse=1 WtCom= 1.00D+00 WtEn= 0.00D+00
 Coeff-Com: -0.307D-02 0.608D-01 0.771D-01 0.213D+00 0.652D+00
 Coeff:     -0.307D-02 0.608D-01 0.771D-01 0.213D+00 0.652D+00
 Gap=     0.294 Goal=   None    Shift=    0.000
 RMSDP=1.41D-08 MaxDP=4.41D-07 DE=-1.25D-10 OVMax= 5.52D-07

 Cycle  10  Pass 1  IDiag  1:
 RMSU=  1.37D-08    CP:  1.00D+00  1.02D+00  5.84D-01  7.45D-01  9.85D-01
 E= -708.262687528511     Delta-E=        0.000000000005 Rises=F Damp=F
 DIIS: error= 3.29D-08 at cycle   6 NSaved=   6.
 NSaved= 6 IEnMin= 5 EnMin= -708.262687528516     IErMin= 6 ErrMin= 3.29D-08
 ErrMax= 3.29D-08  0.00D+00 EMaxC= 1.00D-01 BMatC= 5.27D-13 BMatP= 4.29D-12
 IDIUse=1 WtCom= 1.00D+00 WtEn= 0.00D+00
 Coeff-Com: -0.146D-04-0.574D-02-0.580D-02 0.244D-04 0.260D+00 0.752D+00
 Coeff:     -0.146D-04-0.574D-02-0.580D-02 0.244D-04 0.260D+00 0.752D+00
 Gap=     0.294 Goal=   None    Shift=    0.000
 RMSDP=4.97D-09 MaxDP=1.76D-07 DE= 5.23D-12 OVMax= 1.42D-07

 SCF Done:  E(RPBE1PBE) =  -708.262687529     A.U. after   10 cycles
            NFock= 10  Conv=0.50D-08     -V/T= 2.3618
 KE= 5.200839512678D+02 PE=-3.022496116151D+03 EE= 1.076335856298D+03
 Leave Link  502 at Thu Apr 25 01:55:39 2024, MaxMem= 10737418240 cpu:             168.4 elap:               4.3
 (Enter /lustre/home/acct-chenxiangyang/chenxiangyang-user1/software/g16/l701.exe)
 ... and contract with generalized density number  0.
 Compute integral first derivatives.
 R6Disp: Adding Grimme-D3(BJ) dispersion energy 1st derivatives to the gradient.
   1 Symmetry operations used in ECPInt.
 ECPInt:  NShTT=    5050 NPrTT=   18521 LenC2=    4998 LenP2D=   14472.
 LDataN:  DoStor=T MaxTD1= 7 Len=  274
 Leave Link  701 at Thu Apr 25 01:55:40 2024, MaxMem= 10737418240 cpu:              12.5 elap:               0.3
 (Enter /lustre/home/acct-chenxiangyang/chenxiangyang-user1/software/g16/l702.exe)
 L702 exits ... SP integral derivatives will be done elsewhere.
 Leave Link  702 at Thu Apr 25 01:55:40 2024, MaxMem= 10737418240 cpu:               0.6 elap:               0.0
 (Enter /lustre/home/acct-chenxiangyang/chenxiangyang-user1/software/g16/l703.exe)
 Integral derivatives from FoFJK, PRISM(SPDF).
 Compute integral first derivatives, UseDBF=F ICtDFT=           0.
 Calling FoFJK, ICntrl=      2127 FMM=F ISym2X=0 I1Cent= 0 IOpClX= 0 NMat=1 NMatS=1 NMatT=0.
 FoFJK:  IHMeth= 1 ICntrl=    2127 DoSepK=F KAlg= 0 I1Cent=           0 FoldK=F
 IRaf=         0 NMat=       1 IRICut=       1 DoRegI=T DoRafI=F ISym2E= 0 IDoP0=0 IntGTp=1.
 FoFCou: FMM=F IPFlag=           0 FMFlag=      100000 FMFlg1=         800
         NFxFlg=           0 DoJE=F BraDBF=F KetDBF=F FulRan=T
         wScrn=  0.000000 ICntrl=      2127 IOpCl=  0 I1Cent=           0 NGrid=           0
         NMat0=    1 NMatS0=      1 NMatT0=    0 NMatD0=    1 NMtDS0=    0 NMtDT0=    0
 Symmetry not used in FoFCou.
 Defaulting to unpruned grid for atomic number  53.
 Defaulting to unpruned grid for atomic number  53.
 Defaulting to unpruned grid for atomic number  53.
 Defaulting to unpruned grid for atomic number  53.
 Defaulting to unpruned grid for atomic number  53.
 Defaulting to unpruned grid for atomic number  53.
 Defaulting to unpruned grid for atomic number  53.
 Defaulting to unpruned grid for atomic number  53.
 Defaulting to unpruned grid for atomic number  53.
 Defaulting to unpruned grid for atomic number  53.
 Defaulting to unpruned grid for atomic number  53.
 Defaulting to unpruned grid for atomic number  53.
 Defaulting to unpruned grid for atomic number  53.
 Defaulting to unpruned grid for atomic number  53.
 Defaulting to unpruned grid for atomic number  53.
 Defaulting to unpruned grid for atomic number  53.
 Defaulting to unpruned grid for atomic number  53.
 Defaulting to unpruned grid for atomic number  53.
 Defaulting to unpruned grid for atomic number  53.
 Defaulting to unpruned grid for atomic number  53.
 Defaulting to unpruned grid for atomic number  53.
 Defaulting to unpruned grid for atomic number  53.
 Defaulting to unpruned grid for atomic number  53.
 Defaulting to unpruned grid for atomic number  53.
 Defaulting to unpruned grid for atomic number  53.
 Defaulting to unpruned grid for atomic number  53.
 Defaulting to unpruned grid for atomic number  53.
 Defaulting to unpruned grid for atomic number  53.
 Defaulting to unpruned grid for atomic number  53.
 Defaulting to unpruned grid for atomic number  53.
 Defaulting to unpruned grid for atomic number  53.
 Defaulting to unpruned grid for atomic number  53.
 Defaulting to unpruned grid for atomic number  53.
 Defaulting to unpruned grid for atomic number  53.
 Defaulting to unpruned grid for atomic number  53.
 Defaulting to unpruned grid for atomic number  53.
 Defaulting to unpruned grid for atomic number  53.
 Defaulting to unpruned grid for atomic number  53.
 Defaulting to unpruned grid for atomic number  53.
 Defaulting to unpruned grid for atomic number  53.
 Leave Link  703 at Thu Apr 25 01:55:41 2024, MaxMem= 10737418240 cpu:              45.7 elap:               1.2
 (Enter /lustre/home/acct-chenxiangyang/chenxiangyang-user1/software/g16/l716.exe)
 Dipole        =-1.60631055D+00 1.23217970D-06 4.34933136D-06
 ***** Axes restored to original set *****
 -------------------------------------------------------------------
 Center     Atomic                   Forces (Hartrees/Bohr)
 Number     Number              X              Y              Z
 -------------------------------------------------------------------
      1        5           0.000000805   -0.001569380   -0.000001086
      2        8           0.000069916    0.001620045    0.000337225
      3        8          -0.000070433    0.001621370   -0.000336184
      4        6          -0.000105648   -0.001464830   -0.000630119
      5        6           0.000105518   -0.001465929    0.000630485
      6        6          -0.000133585    0.000243092    0.000182168
      7        6           0.000002492    0.000299480   -0.000033104
      8        6           0.000133821    0.000243003   -0.000182346
      9        6          -0.000003084    0.000299215    0.000032552
     10        1          -0.000001848   -0.000008399    0.000046638
     11        1           0.000046685   -0.000011170   -0.000017932
     12        1          -0.000018496   -0.000027069    0.000017745
     13        1           0.000006806   -0.000030709    0.000030761
     14        1           0.000012372    0.000016870   -0.000042107
     15        1           0.000041443    0.000000704   -0.000014774
     16        1           0.000001867   -0.000008638   -0.000046612
     17        1          -0.000046475   -0.000011086    0.000017869
     18        1           0.000018691   -0.000027046   -0.000017524
     19        1          -0.000041659    0.000000675    0.000015109
     20        1          -0.000006680   -0.000030982   -0.000030984
     21        1          -0.000012343    0.000016804    0.000042077
     22       53          -0.000000164    0.000293981    0.000000142
 -------------------------------------------------------------------
 Cartesian Forces:  Max     0.001621370 RMS     0.000453560
 Leave Link  716 at Thu Apr 25 01:55:41 2024, MaxMem= 10737418240 cpu:               0.7 elap:               0.0
 (Enter /lustre/home/acct-chenxiangyang/chenxiangyang-user1/software/g16/l103.exe)

 GradGradGradGradGradGradGradGradGradGradGradGradGradGradGradGradGradGrad
 Berny optimization.
 Using GEDIIS/GDIIS optimizer.
 FormGI is forming the generalized inverse of G from B-inverse, IUseBI=4.
 Internal  Forces:  Max     0.001054612 RMS     0.000180876
 Search for a local minimum.
 Step number   3 out of a maximum of  128
 All quantities printed in internal units (Hartrees-Bohrs-Radians)
 RMS Force = .18088D-03 SwitMx=.10000D-02 MixMth= 2
 Mixed Optimization -- En-DIIS/RFO-DIIS
 Swapping is turned off.
 Update second derivatives using D2CorX and points    1    2    3
 DE= -2.54D-04 DEPred=-2.71D-04 R= 9.37D-01
 TightC=F SS=  1.41D+00  RLast= 5.52D-02 DXNew= 8.4853D-01 1.6569D-01
 Trust test= 9.37D-01 RLast= 5.52D-02 DXMaxT set to 5.05D-01
 ITU=  1  1  0
     Eigenvalues ---    0.00443   0.00444   0.00544   0.00544   0.00713
     Eigenvalues ---    0.01987   0.02637   0.03872   0.04175   0.05484
     Eigenvalues ---    0.05486   0.05594   0.05595   0.05722   0.05814
     Eigenvalues ---    0.05817   0.05825   0.05826   0.06275   0.07514
     Eigenvalues ---    0.11173   0.12583   0.14829   0.15274   0.15994
     Eigenvalues ---    0.16000   0.16000   0.16000   0.16000   0.16000
     Eigenvalues ---    0.16000   0.16000   0.16000   0.16000   0.16001
     Eigenvalues ---    0.16383   0.17610   0.22313   0.25000   0.26709
     Eigenvalues ---    0.29820   0.29946   0.30671   0.30681   0.33586
     Eigenvalues ---    0.33613   0.33699   0.33715   0.33719   0.33729
     Eigenvalues ---    0.33730   0.33734   0.33746   0.33752   0.33810
     Eigenvalues ---    0.33990   0.34003   0.37176   0.45625   0.50188
 En-DIIS/RFO-DIIS/Sim-DIIS IScMMF=       -3 using points:     3    2
 RFO step:  Lambda=-1.68220543D-05.
 NNeg= 0 NGDIIS= 2 SimSw=  2.50D-03 Rises=F DC= -2.54D-04 SmlDif=  1.00D-05
 NRisDI= 0 DoIntr=F SqrtH=F CThrHd= 10.0 CDAdj=  3.0
 RMS Error=  0.1470260175D-02 NUsed= 2 OKEnD=T EnDIS=F
 InvSVX:  RCond= 7.61D-04 Info=           0 Equed=N FErr=  1.06D-15 BErr=  2.15D-17
 DidBck=F Rises=F RFO-DIIS coefs:    1.01049   -0.01049
 Iteration  1 RMS(Cart)=  0.00173285 RMS(Int)=  0.00000239
 Iteration  2 RMS(Cart)=  0.00000282 RMS(Int)=  0.00000045
 Iteration  3 RMS(Cart)=  0.00000000 RMS(Int)=  0.00000045
 ITry= 1 IFail=0 DXMaxC= 6.32D-03 DCOld= 1.00D+10 DXMaxT= 5.05D-01 DXLimC= 3.00D+00 Rises=F
 Variable       Old X    -DE/DX   Delta X   Delta X   Delta X     New X
                                 (Linear)    (Quad)   (Total)
    R1        2.56008  -0.00041  -0.00001  -0.00130  -0.00130   2.55878
    R2        2.56008  -0.00041  -0.00001  -0.00130  -0.00130   2.55878
    R3        4.01998   0.00029   0.00051   0.00307   0.00357   4.02356
    R4        2.73021   0.00105   0.00007   0.00330   0.00337   2.73359
    R5        2.73021   0.00105   0.00007   0.00330   0.00338   2.73358
    R6        2.96788  -0.00005  -0.00003   0.00017   0.00014   2.96803
    R7        2.87876  -0.00024  -0.00001  -0.00089  -0.00090   2.87786
    R8        2.86402  -0.00023  -0.00000  -0.00081  -0.00081   2.86321
    R9        2.87877  -0.00024  -0.00001  -0.00090  -0.00090   2.87786
   R10        2.86402  -0.00022  -0.00000  -0.00081  -0.00081   2.86321
   R11        2.07707  -0.00001   0.00000  -0.00001  -0.00001   2.07706
   R12        2.07701   0.00002  -0.00000   0.00006   0.00006   2.07707
   R13        2.07839  -0.00003   0.00000  -0.00009  -0.00009   2.07830
   R14        2.07733   0.00002  -0.00000   0.00006   0.00006   2.07738
   R15        2.07927  -0.00001   0.00000  -0.00001  -0.00001   2.07927
   R16        2.07339  -0.00004  -0.00000  -0.00013  -0.00013   2.07326
   R17        2.07707  -0.00001   0.00000  -0.00001  -0.00001   2.07706
   R18        2.07701   0.00002  -0.00000   0.00006   0.00006   2.07707
   R19        2.07839  -0.00003   0.00000  -0.00009  -0.00009   2.07830
   R20        2.07339  -0.00004  -0.00000  -0.00013  -0.00013   2.07326
   R21        2.07733   0.00002  -0.00000   0.00006   0.00006   2.07738
   R22        2.07927  -0.00001   0.00000  -0.00001  -0.00001   2.07927
    A1        2.00231   0.00066  -0.00002   0.00272   0.00270   2.00501
    A2        2.14044  -0.00033   0.00001  -0.00136  -0.00135   2.13909
    A3        2.14044  -0.00033   0.00001  -0.00136  -0.00135   2.13909
    A4        1.85779  -0.00028   0.00001  -0.00126  -0.00125   1.85655
    A5        1.85779  -0.00028   0.00001  -0.00126  -0.00124   1.85655
    A6        1.78182  -0.00005  -0.00002  -0.00002  -0.00004   1.78178
    A7        1.86246  -0.00005   0.00001  -0.00125  -0.00124   1.86123
    A8        1.89985  -0.00001   0.00003  -0.00120  -0.00117   1.89868
    A9        1.97216   0.00006  -0.00002   0.00083   0.00081   1.97297
   A10        2.00520   0.00005  -0.00002   0.00083   0.00080   2.00601
   A11        1.92980  -0.00002   0.00002   0.00047   0.00049   1.93029
   A12        1.78182  -0.00005  -0.00002  -0.00002  -0.00004   1.78178
   A13        1.86246  -0.00005   0.00001  -0.00125  -0.00123   1.86123
   A14        1.89985  -0.00001   0.00003  -0.00120  -0.00117   1.89868
   A15        1.97216   0.00006  -0.00002   0.00082   0.00080   1.97296
   A16        2.00520   0.00005  -0.00002   0.00083   0.00081   2.00601
   A17        1.92980  -0.00002   0.00002   0.00047   0.00048   1.93029
   A18        1.94850  -0.00005   0.00000  -0.00044  -0.00044   1.94806
   A19        1.89802   0.00008  -0.00000   0.00056   0.00056   1.89858
   A20        1.94220  -0.00001   0.00000  -0.00002  -0.00002   1.94218
   A21        1.89373  -0.00003   0.00000  -0.00025  -0.00025   1.89349
   A22        1.89556   0.00002  -0.00001   0.00005   0.00004   1.89560
   A23        1.88417  -0.00001   0.00000   0.00011   0.00011   1.88428
   A24        1.91243   0.00006  -0.00000   0.00042   0.00042   1.91284
   A25        1.93108  -0.00008   0.00001  -0.00058  -0.00057   1.93052
   A26        1.94827   0.00001  -0.00001   0.00008   0.00007   1.94834
   A27        1.88731  -0.00000  -0.00000  -0.00011  -0.00011   1.88721
   A28        1.88427  -0.00002   0.00001  -0.00000   0.00000   1.88427
   A29        1.89888   0.00003  -0.00000   0.00019   0.00019   1.89907
   A30        1.94850  -0.00005   0.00000  -0.00044  -0.00044   1.94806
   A31        1.89802   0.00008  -0.00000   0.00056   0.00056   1.89858
   A32        1.94220  -0.00001   0.00000  -0.00002  -0.00002   1.94218
   A33        1.89373  -0.00003   0.00000  -0.00025  -0.00024   1.89349
   A34        1.89556   0.00003  -0.00001   0.00005   0.00004   1.89560
   A35        1.88417  -0.00001   0.00000   0.00011   0.00011   1.88428
   A36        1.94827   0.00001  -0.00001   0.00008   0.00007   1.94834
   A37        1.91242   0.00006  -0.00000   0.00043   0.00042   1.91284
   A38        1.93108  -0.00008   0.00001  -0.00058  -0.00057   1.93052
   A39        1.88427  -0.00002   0.00001  -0.00000   0.00000   1.88427
   A40        1.89888   0.00003  -0.00000   0.00019   0.00018   1.89907
   A41        1.88732  -0.00000  -0.00000  -0.00011  -0.00011   1.88721
    D1        0.17144  -0.00004   0.00001  -0.00021  -0.00020   0.17124
    D2       -2.97014  -0.00004   0.00002  -0.00025  -0.00023  -2.97037
    D3        0.17146  -0.00004   0.00002  -0.00025  -0.00024   0.17122
    D4       -2.97015  -0.00004   0.00001  -0.00022  -0.00021  -2.97035
    D5       -0.40401  -0.00001  -0.00005   0.00026   0.00022  -0.40379
    D6        1.66911   0.00002  -0.00007   0.00067   0.00060   1.66971
    D7       -2.53101  -0.00004  -0.00003  -0.00012  -0.00014  -2.53115
    D8       -0.40402  -0.00001  -0.00005   0.00028   0.00024  -0.40378
    D9        1.66911   0.00002  -0.00007   0.00069   0.00062   1.66972
   D10       -2.53102  -0.00004  -0.00003  -0.00010  -0.00013  -2.53115
   D11        0.49115  -0.00004   0.00004  -0.00034  -0.00030   0.49085
   D12       -1.50251   0.00001   0.00004   0.00078   0.00082  -1.50169
   D13        2.54412  -0.00006   0.00005  -0.00140  -0.00135   2.54277
   D14       -1.50250   0.00001   0.00004   0.00077   0.00082  -1.50169
   D15        2.78702   0.00007   0.00005   0.00189   0.00194   2.78896
   D16        0.55046  -0.00001   0.00006  -0.00029  -0.00023   0.55023
   D17        2.54412  -0.00006   0.00005  -0.00141  -0.00135   2.54277
   D18        0.55046  -0.00001   0.00006  -0.00029  -0.00023   0.55023
   D19       -1.68610  -0.00008   0.00007  -0.00247  -0.00240  -1.68850
   D20        3.07065  -0.00001   0.00004  -0.00317  -0.00312   3.06753
   D21        0.98177   0.00000   0.00004  -0.00295  -0.00291   0.97886
   D22       -1.09146  -0.00002   0.00004  -0.00343  -0.00339  -1.09485
   D23       -1.26812  -0.00007   0.00002  -0.00350  -0.00348  -1.27160
   D24        2.92619  -0.00006   0.00002  -0.00329  -0.00327   2.92292
   D25        0.85296  -0.00008   0.00001  -0.00377  -0.00375   0.84920
   D26        1.00711   0.00004  -0.00001  -0.00125  -0.00125   1.00586
   D27       -1.08177   0.00005  -0.00001  -0.00103  -0.00104  -1.08281
   D28        3.12819   0.00003  -0.00001  -0.00151  -0.00152   3.12666
   D29       -1.14461  -0.00000  -0.00001  -0.00040  -0.00041  -1.14502
   D30        3.05916   0.00001  -0.00001  -0.00018  -0.00019   3.05897
   D31        0.94176   0.00001  -0.00001  -0.00007  -0.00008   0.94168
   D32       -3.12958   0.00004   0.00000  -0.00005  -0.00005  -3.12962
   D33        1.07419   0.00005   0.00000   0.00017   0.00017   1.07437
   D34       -1.04320   0.00005   0.00000   0.00027   0.00028  -1.04292
   D35        0.89596  -0.00007   0.00003  -0.00235  -0.00232   0.89363
   D36       -1.18346  -0.00006   0.00003  -0.00213  -0.00211  -1.18556
   D37        2.98233  -0.00006   0.00003  -0.00203  -0.00200   2.98033
   D38        3.07066  -0.00001   0.00004  -0.00318  -0.00313   3.06753
   D39        0.98178   0.00000   0.00004  -0.00296  -0.00292   0.97886
   D40       -1.09145  -0.00002   0.00004  -0.00344  -0.00340  -1.09485
   D41       -1.26810  -0.00007   0.00002  -0.00352  -0.00350  -1.27160
   D42        2.92621  -0.00006   0.00002  -0.00331  -0.00329   2.92292
   D43        0.85297  -0.00008   0.00001  -0.00378  -0.00377   0.84920
   D44        1.00713   0.00004  -0.00001  -0.00126  -0.00127   1.00586
   D45       -1.08175   0.00005  -0.00001  -0.00105  -0.00106  -1.08281
   D46        3.12820   0.00003  -0.00001  -0.00152  -0.00154   3.12666
   D47        0.94176   0.00001  -0.00001  -0.00007  -0.00009   0.94168
   D48       -1.14461  -0.00000  -0.00001  -0.00040  -0.00041  -1.14502
   D49        3.05916   0.00001  -0.00001  -0.00018  -0.00020   3.05897
   D50       -1.04320   0.00005   0.00000   0.00027   0.00027  -1.04293
   D51       -3.12957   0.00004   0.00000  -0.00006  -0.00005  -3.12963
   D52        1.07420   0.00005   0.00000   0.00016   0.00016   1.07436
   D53        2.98233  -0.00006   0.00003  -0.00203  -0.00200   2.98033
   D54        0.89596  -0.00007   0.00003  -0.00236  -0.00233   0.89363
   D55       -1.18345  -0.00006   0.00003  -0.00214  -0.00211  -1.18556
         Item               Value     Threshold  Converged?
 Maximum Force            0.001055     0.000450     NO 
 RMS     Force            0.000181     0.000300     YES
 Maximum Displacement     0.006318     0.001800     NO 
 RMS     Displacement     0.001732     0.001200     NO 
 Predicted change in Energy=-8.414563D-06
 Lowest energy point so far.  Saving SCF results.
 GradGradGradGradGradGradGradGradGradGradGradGradGradGradGradGradGradGrad

 Leave Link  103 at Thu Apr 25 01:55:41 2024, MaxMem= 10737418240 cpu:               9.0 elap:               0.3
 (Enter /lustre/home/acct-chenxiangyang/chenxiangyang-user1/software/g16/l202.exe)
                          Input orientation:                          
 ---------------------------------------------------------------------
 Center     Atomic      Atomic             Coordinates (Angstroms)
 Number     Number       Type             X           Y           Z
 ---------------------------------------------------------------------
      1          5           0       -0.079597   -0.062369   -0.000009
      2          8           0        0.608830   -0.791165    0.910140
      3          8           0       -0.768065   -0.791055   -0.910216
      4          6           0        0.560715   -2.163233    0.454480
      5          6           0       -0.720006   -2.163165   -0.454680
      6          6           0        1.845407   -2.409031   -0.325502
      7          6           0        0.487118   -3.075959    1.661616
      8          6           0       -2.004706   -2.408982    0.325283
      9          6           0       -0.646449   -3.075787   -1.661897
     10          1           0        1.928986   -3.456356   -0.648337
     11          1           0        2.702503   -2.174204    0.321298
     12          1           0        1.903260   -1.762437   -1.213252
     13          1           0        1.419050   -2.998826    2.239563
     14          1           0        0.364322   -4.123510    1.348214
     15          1           0       -0.344844   -2.804914    2.323468
     16          1           0       -2.088327   -3.456332    0.648024
     17          1           0       -2.861794   -2.174061   -0.321493
     18          1           0       -2.062529   -1.762466    1.213092
     19          1           0        0.185520   -2.804717   -2.323728
     20          1           0       -1.578381   -2.998566   -2.239833
     21          1           0       -0.523695   -4.123371   -1.348588
     22         53           0       -0.079565    2.066807    0.000096
 ---------------------------------------------------------------------
                    Distance matrix (angstroms):
                    1          2          3          4          5
     1  B    0.000000
     2  O    1.354048   0.000000
     3  O    1.354049   2.282441   0.000000
     4  C    2.242808   1.446551   2.347536   0.000000
     5  C    2.242809   2.347535   1.446550   1.570611   0.000000
     6  C    3.052607   2.381895   3.128893   1.522899   2.580403
     7  C    3.487676   2.408279   3.662046   1.515144   2.601739
     8  C    3.052614   3.128891   2.381895   2.580401   1.522899
     9  C    3.487676   3.662048   2.408280   2.601741   1.515144
    10  H    3.996734   3.357812   3.800854   2.181865   2.954150
    11  H    3.507586   2.577401   3.933772   2.145952   3.509392
    12  H    2.879915   2.669777   2.858564   2.178163   2.759988
    13  H    3.985524   2.701405   4.424797   2.149761   3.540174
    14  H    4.302050   3.369898   4.181873   2.163334   2.875612
    15  H    3.604227   2.638593   3.832943   2.173685   2.875881
    16  H    3.996740   3.800852   3.357813   2.954148   2.181866
    17  H    3.507594   3.933770   2.577402   3.509390   2.145953
    18  H    2.879924   2.858560   2.669778   2.759985   2.178162
    19  H    3.604224   3.832947   2.638593   2.875885   2.173685
    20  H    3.985526   4.424798   2.701406   3.540175   2.149762
    21  H    4.302050   4.181873   3.369899   2.875612   2.163335
    22  I    2.129176   3.077349   3.077349   4.302285   4.302284
                    6          7          8          9         10
     6  C    0.000000
     7  C    2.497675   0.000000
     8  C    3.904726   2.905138   0.000000
     9  C    2.905144   3.511511   2.497674   0.000000
    10  H    1.099135   2.749467   4.185553   2.793743   0.000000
    11  H    1.099139   2.741814   4.713061   3.995171   1.783938
    12  H    1.099787   3.463475   4.249388   2.902961   1.785819
    13  H    2.666307   1.099304   3.966672   4.415155   2.968052
    14  H    2.816802   1.100301   3.098110   3.343673   2.622877
    15  H    3.459908   1.097120   2.627669   4.005929   3.798197
    16  H    4.185553   2.793737   1.099135   2.749465   4.221298
    17  H    4.713063   3.995165   1.099139   2.741814   4.970179
    18  H    4.249386   2.902953   1.099787   3.463475   4.718726
    19  H    2.627679   4.005933   3.459907   1.097120   2.504245
    20  H    3.966679   4.415153   2.666306   1.099304   3.878666
    21  H    3.098114   3.343672   2.816801   1.100301   2.636457
    22  I    4.883099   5.434134   4.883093   5.434137   5.912704
                   11         12         13         14         15
    11  H    0.000000
    12  H    1.778534   0.000000
    13  H    2.450917   3.699331   0.000000
    14  H    3.212700   3.808425   1.780974   0.000000
    15  H    3.700378   4.318462   1.776503   1.786822   0.000000
    16  H    4.970176   4.718728   3.878659   2.636452   2.504234
    17  H    5.601301   4.865224   5.056171   4.122632   3.705243
    18  H    4.865219   4.649153   3.834530   3.388568   2.295664
    19  H    3.705254   2.295677   4.731056   3.905680   4.677362
    20  H    5.056177   3.834540   5.389766   4.232455   4.731050
    21  H    4.122636   3.388574   4.232456   2.839246   3.905677
    22  I    5.082247   4.479611   5.737743   6.350943   5.403896
                   16         17         18         19         20
    16  H    0.000000
    17  H    1.783938   0.000000
    18  H    1.785819   1.778535   0.000000
    19  H    3.798196   3.700378   4.318461   0.000000
    20  H    2.968049   2.450916   3.699329   1.776503   0.000000
    21  H    2.622876   3.212700   3.808424   1.786822   1.780974
    22  I    5.912698   5.082241   4.479602   5.403903   5.737746
                   21         22
    21  H    0.000000
    22  I    6.350945   0.000000
 Stoichiometry    C6H12BIO2
 Framework group  C1[X(C6H12BIO2)]
 Deg. of freedom    60
 Full point group                 C1      NOp   1
 RotChk:  IX=0 Diff= 1.00D-03
 Largest Abelian subgroup         C1      NOp   1
 Largest concise Abelian subgroup C1      NOp   1
                         Standard orientation:                         
 ---------------------------------------------------------------------
 Center     Atomic      Atomic             Coordinates (Angstroms)
 Number     Number       Type             X           Y           Z
 ---------------------------------------------------------------------
      1          5           0        0.182267   -0.000004   -0.000009
      2          8           0       -0.546475   -1.062724    0.415934
      3          8           0       -0.546475    1.062723   -0.415938
      4          6           0       -1.918564   -0.783535    0.052706
      5          6           0       -1.918563    0.783535   -0.052707
      6          6           0       -2.164374   -1.470875   -1.283842
      7          6           0       -2.831236   -1.351953    1.120223
      8          6           0       -2.164368    1.470872    1.283844
      9          6           0       -2.831239    1.351957   -1.120218
     10          1           0       -3.211711   -1.373377   -1.602707
     11          1           0       -1.929500   -2.539651   -1.180601
     12          1           0       -1.517820   -1.056027   -2.070863
     13          1           0       -2.754059   -2.448531    1.125650
     14          1           0       -3.878804   -1.083465    0.917298
     15          1           0       -2.560176   -0.988776    2.119374
     16          1           0       -3.211705    1.373375    1.602712
     17          1           0       -1.929493    2.539648    1.180605
     18          1           0       -1.517812    1.056021    2.070861
     19          1           0       -2.560183    0.988785   -2.119372
     20          1           0       -2.754062    2.448536   -1.125641
     21          1           0       -3.878806    1.083469   -0.917290
     22         53           0        2.311442    0.000000    0.000000
 ---------------------------------------------------------------------
 Rotational constants (GHZ):           1.7588436           0.4034141           0.3800099
 Leave Link  202 at Thu Apr 25 01:55:41 2024, MaxMem= 10737418240 cpu:               0.1 elap:               0.0
 (Enter /lustre/home/acct-chenxiangyang/chenxiangyang-user1/software/g16/l301.exe)
 Standard basis: def2SVP (5D, 7F)
 Ernie: Thresh=  0.10000D-02 Tol=  0.10000D-05 Strict=F.
 There are   223 symmetry adapted cartesian basis functions of A   symmetry.
 There are   212 symmetry adapted basis functions of A   symmetry.
   212 basis functions,   376 primitive gaussians,   223 cartesian basis functions
    47 alpha electrons       47 beta electrons
       nuclear repulsion energy       717.7327412607 Hartrees.
 IExCor= 1009 DFT=T Ex+Corr=PBE1PBE ExCW=0 ScaHFX=  0.250000
 ScaDFX=  0.750000  0.750000  1.000000  1.000000 ScalE2=  1.000000  1.000000
 IRadAn=      5 IRanWt=     -1 IRanGd=            0 ICorTp=0 IEmpDi=141
 NAtoms=   22 NActive=   22 NUniq=   22 SFac= 1.00D+00 NAtFMM=   60 NAOKFM=F Big=F
 Integral buffers will be    131072 words long.
 Raffenetti 2 integral format.
 Two-electron integral symmetry is turned on.
 R6Disp:  Grimme-D3(BJ) Dispersion energy=       -0.0218972024 Hartrees.
 Nuclear repulsion after empirical dispersion term =      717.7108440582 Hartrees.
 Leave Link  301 at Thu Apr 25 01:55:41 2024, MaxMem= 10737418240 cpu:               2.0 elap:               0.1
 (Enter /lustre/home/acct-chenxiangyang/chenxiangyang-user1/software/g16/l302.exe)
 NPDir=0 NMtPBC=     1 NCelOv=     1 NCel=       1 NClECP=     1 NCelD=      1
         NCelK=      1 NCelE2=     1 NClLst=     1 CellRange=     0.0.
 One-electron integrals computed using PRISM.
 One-electron integral symmetry used in STVInt
   1 Symmetry operations used in ECPInt.
 ECPInt:  NShTT=    5050 NPrTT=   18521 LenC2=    4998 LenP2D=   14472.
 LDataN:  DoStor=T MaxTD1= 6 Len=  172
 NBasis=   212 RedAO= T EigKep=  7.47D-04  NBF=   212
 NBsUse=   212 1.00D-06 EigRej= -1.00D+00 NBFU=   212
 Precomputing XC quadrature grid using
 IXCGrd= 4 IRadAn=           5 IRanWt=          -1 IRanGd=           0 AccXCQ= 0.00D+00.
 Defaulting to unpruned grid for atomic number  53.
 Generated NRdTot=       0 NPtTot=           0 NUsed=           0 NTot=          32
 NSgBfM=   223   223   223   223   223 MxSgAt=    22 MxSgA2=    22.
 Leave Link  302 at Thu Apr 25 01:55:42 2024, MaxMem= 10737418240 cpu:              10.6 elap:               0.3
 (Enter /lustre/home/acct-chenxiangyang/chenxiangyang-user1/software/g16/l303.exe)
 DipDrv:  MaxL=1.
 Leave Link  303 at Thu Apr 25 01:55:42 2024, MaxMem= 10737418240 cpu:               4.2 elap:               0.1
 (Enter /lustre/home/acct-chenxiangyang/chenxiangyang-user1/software/g16/l401.exe)
 Initial guess from the checkpoint file:  "I-Bpin-of1.chk"
 B after Tr=    -0.000000   -0.000000   -0.000000
         Rot=    1.000000   -0.000342   -0.000000   -0.000000 Ang=  -0.04 deg.
 Guess basis will be translated and rotated to current coordinates.
 JPrj=2 DoOrth=T DoCkMO=T.
 Leave Link  401 at Thu Apr 25 01:55:42 2024, MaxMem= 10737418240 cpu:               4.1 elap:               0.1
 (Enter /lustre/home/acct-chenxiangyang/chenxiangyang-user1/software/g16/l502.exe)
 Integral symmetry usage will be decided dynamically.
 Closed shell SCF:
 Using DIIS extrapolation, IDIIS=  1040.
 NGot= 10737418240 LenX= 10737307358 LenY= 10737257188
 Requested convergence on RMS density matrix=1.00D-08 within 128 cycles.
 Requested convergence on MAX density matrix=1.00D-06.
 Requested convergence on             energy=1.00D-06.
 No special actions if energy rises.
 Fock matrices will be formed incrementally for  20 cycles.

 Cycle   1  Pass 1  IDiag  1:
 FoFJK:  IHMeth= 1 ICntrl=       0 DoSepK=F KAlg= 0 I1Cent=           0 FoldK=F
 IRaf= 970000000 NMat=       1 IRICut=       1 DoRegI=T DoRafI=F ISym2E= 0 IDoP0=0 IntGTp=1.
 FoFCou: FMM=F IPFlag=           0 FMFlag=      100000 FMFlg1=           0
         NFxFlg=           0 DoJE=F BraDBF=F KetDBF=F FulRan=T
         wScrn=  0.000000 ICntrl=         0 IOpCl=  0 I1Cent=           0 NGrid=           0
         NMat0=    1 NMatS0=      1 NMatT0=    0 NMatD0=    1 NMtDS0=    0 NMtDT0=    0
 Symmetry not used in FoFCou.
 Defaulting to unpruned grid for atomic number  53.
 Defaulting to unpruned grid for atomic number  53.
 Defaulting to unpruned grid for atomic number  53.
 Defaulting to unpruned grid for atomic number  53.
 Defaulting to unpruned grid for atomic number  53.
 Defaulting to unpruned grid for atomic number  53.
 Defaulting to unpruned grid for atomic number  53.
 Defaulting to unpruned grid for atomic number  53.
 Defaulting to unpruned grid for atomic number  53.
 Defaulting to unpruned grid for atomic number  53.
 Defaulting to unpruned grid for atomic number  53.
 Defaulting to unpruned grid for atomic number  53.
 Defaulting to unpruned grid for atomic number  53.
 Defaulting to unpruned grid for atomic number  53.
 Defaulting to unpruned grid for atomic number  53.
 Defaulting to unpruned grid for atomic number  53.
 Defaulting to unpruned grid for atomic number  53.
 Defaulting to unpruned grid for atomic number  53.
 Defaulting to unpruned grid for atomic number  53.
 Defaulting to unpruned grid for atomic number  53.
 Defaulting to unpruned grid for atomic number  53.
 Defaulting to unpruned grid for atomic number  53.
 Defaulting to unpruned grid for atomic number  53.
 Defaulting to unpruned grid for atomic number  53.
 Defaulting to unpruned grid for atomic number  53.
 Defaulting to unpruned grid for atomic number  53.
 Defaulting to unpruned grid for atomic number  53.
 Defaulting to unpruned grid for atomic number  53.
 Defaulting to unpruned grid for atomic number  53.
 Defaulting to unpruned grid for atomic number  53.
 Defaulting to unpruned grid for atomic number  53.
 Defaulting to unpruned grid for atomic number  53.
 Defaulting to unpruned grid for atomic number  53.
 Defaulting to unpruned grid for atomic number  53.
 Defaulting to unpruned grid for atomic number  53.
 Defaulting to unpruned grid for atomic number  53.
 Defaulting to unpruned grid for atomic number  53.
 Defaulting to unpruned grid for atomic number  53.
 Defaulting to unpruned grid for atomic number  53.
 Defaulting to unpruned grid for atomic number  53.
 E= -708.262687341468    
 DIIS: error= 1.54D-04 at cycle   1 NSaved=   1.
 NSaved= 1 IEnMin= 1 EnMin= -708.262687341468     IErMin= 1 ErrMin= 1.54D-04
 ErrMax= 1.54D-04  0.00D+00 EMaxC= 1.00D-01 BMatC= 7.07D-06 BMatP= 7.07D-06
 IDIUse=3 WtCom= 9.98D-01 WtEn= 1.54D-03
 Coeff-Com:  0.100D+01
 Coeff-En:   0.100D+01
 Coeff:      0.100D+01
 Gap=     0.597 Goal=   None    Shift=    0.000
 RMSDP=2.36D-05 MaxDP=4.60D-04              OVMax= 6.28D-04

 Cycle   2  Pass 1  IDiag  1:
 RMSU=  2.36D-05    CP:  1.00D+00
 E= -708.262697569790     Delta-E=       -0.000010228322 Rises=F Damp=F
 DIIS: error= 1.95D-05 at cycle   2 NSaved=   2.
 NSaved= 2 IEnMin= 2 EnMin= -708.262697569790     IErMin= 2 ErrMin= 1.95D-05
 ErrMax= 1.95D-05  0.00D+00 EMaxC= 1.00D-01 BMatC= 1.51D-07 BMatP= 7.07D-06
 IDIUse=1 WtCom= 1.00D+00 WtEn= 0.00D+00
 Coeff-Com: -0.302D-01 0.103D+01
 Coeff:     -0.302D-01 0.103D+01
 Gap=     0.294 Goal=   None    Shift=    0.000
 RMSDP=3.79D-06 MaxDP=9.56D-05 DE=-1.02D-05 OVMax= 1.47D-04

 Cycle   3  Pass 1  IDiag  1:
 RMSU=  3.60D-06    CP:  1.00D+00  1.05D+00
 E= -708.262697666155     Delta-E=       -0.000000096366 Rises=F Damp=F
 DIIS: error= 1.88D-05 at cycle   3 NSaved=   3.
 NSaved= 3 IEnMin= 3 EnMin= -708.262697666155     IErMin= 3 ErrMin= 1.88D-05
 ErrMax= 1.88D-05  0.00D+00 EMaxC= 1.00D-01 BMatC= 1.14D-07 BMatP= 1.51D-07
 IDIUse=1 WtCom= 1.00D+00 WtEn= 0.00D+00
 Coeff-Com: -0.312D-01 0.489D+00 0.542D+00
 Coeff:     -0.312D-01 0.489D+00 0.542D+00
 Gap=     0.294 Goal=   None    Shift=    0.000
 RMSDP=1.98D-06 MaxDP=5.73D-05 DE=-9.64D-08 OVMax= 8.90D-05

 Cycle   4  Pass 1  IDiag  1:
 RMSU=  1.42D-06    CP:  1.00D+00  1.06D+00  6.28D-01
 E= -708.262697757202     Delta-E=       -0.000000091047 Rises=F Damp=F
 DIIS: error= 6.75D-06 at cycle   4 NSaved=   4.
 NSaved= 4 IEnMin= 4 EnMin= -708.262697757202     IErMin= 4 ErrMin= 6.75D-06
 ErrMax= 6.75D-06  0.00D+00 EMaxC= 1.00D-01 BMatC= 1.08D-08 BMatP= 1.14D-07
 IDIUse=1 WtCom= 1.00D+00 WtEn= 0.00D+00
 Coeff-Com: -0.121D-01 0.141D+00 0.274D+00 0.597D+00
 Coeff:     -0.121D-01 0.141D+00 0.274D+00 0.597D+00
 Gap=     0.294 Goal=   None    Shift=    0.000
 RMSDP=6.31D-07 MaxDP=1.54D-05 DE=-9.10D-08 OVMax= 1.62D-05

 Cycle   5  Pass 1  IDiag  1:
 RMSU=  3.80D-07    CP:  1.00D+00  1.06D+00  6.65D-01  6.58D-01
 E= -708.262697765772     Delta-E=       -0.000000008570 Rises=F Damp=F
 DIIS: error= 9.41D-07 at cycle   5 NSaved=   5.
 NSaved= 5 IEnMin= 5 EnMin= -708.262697765772     IErMin= 5 ErrMin= 9.41D-07
 ErrMax= 9.41D-07  0.00D+00 EMaxC= 1.00D-01 BMatC= 3.37D-10 BMatP= 1.08D-08
 IDIUse=1 WtCom= 1.00D+00 WtEn= 0.00D+00
 Coeff-Com: -0.269D-02 0.244D-01 0.710D-01 0.217D+00 0.690D+00
 Coeff:     -0.269D-02 0.244D-01 0.710D-01 0.217D+00 0.690D+00
 Gap=     0.294 Goal=   None    Shift=    0.000
 RMSDP=1.16D-07 MaxDP=3.98D-06 DE=-8.57D-09 OVMax= 3.55D-06

 Cycle   6  Pass 1  IDiag  1:
 RMSU=  9.27D-08    CP:  1.00D+00  1.06D+00  6.80D-01  6.75D-01  9.01D-01
 E= -708.262697766003     Delta-E=       -0.000000000231 Rises=F Damp=F
 DIIS: error= 3.81D-07 at cycle   6 NSaved=   6.
 NSaved= 6 IEnMin= 6 EnMin= -708.262697766003     IErMin= 6 ErrMin= 3.81D-07
 ErrMax= 3.81D-07  0.00D+00 EMaxC= 1.00D-01 BMatC= 7.19D-11 BMatP= 3.37D-10
 IDIUse=1 WtCom= 1.00D+00 WtEn= 0.00D+00
 Coeff-Com: -0.966D-04-0.329D-02 0.491D-02 0.408D-01 0.352D+00 0.605D+00
 Coeff:     -0.966D-04-0.329D-02 0.491D-02 0.408D-01 0.352D+00 0.605D+00
 Gap=     0.294 Goal=   None    Shift=    0.000
 RMSDP=5.12D-08 MaxDP=1.65D-06 DE=-2.31D-10 OVMax= 1.41D-06

 Cycle   7  Pass 1  IDiag  1:
 RMSU=  2.59D-08    CP:  1.00D+00  1.06D+00  6.79D-01  6.90D-01  9.24D-01
                    CP:  5.93D-01
 E= -708.262697766064     Delta-E=       -0.000000000061 Rises=F Damp=F
 DIIS: error= 7.23D-08 at cycle   7 NSaved=   7.
 NSaved= 7 IEnMin= 7 EnMin= -708.262697766064     IErMin= 7 ErrMin= 7.23D-08
 ErrMax= 7.23D-08  0.00D+00 EMaxC= 1.00D-01 BMatC= 1.96D-12 BMatP= 7.19D-11
 IDIUse=1 WtCom= 1.00D+00 WtEn= 0.00D+00
 Coeff-Com:  0.775D-04-0.242D-02-0.124D-02 0.640D-02 0.110D+00 0.242D+00
 Coeff-Com:  0.646D+00
 Coeff:      0.775D-04-0.242D-02-0.124D-02 0.640D-02 0.110D+00 0.242D+00
 Coeff:      0.646D+00
 Gap=     0.294 Goal=   None    Shift=    0.000
 RMSDP=1.15D-08 MaxDP=2.86D-07 DE=-6.07D-11 OVMax= 2.55D-07

 Cycle   8  Pass 1  IDiag  1:
 RMSU=  5.46D-09    CP:  1.00D+00  1.06D+00  6.79D-01  6.88D-01  9.35D-01
                    CP:  6.42D-01  7.24D-01
 E= -708.262697766071     Delta-E=       -0.000000000007 Rises=F Damp=F
 DIIS: error= 2.21D-08 at cycle   8 NSaved=   8.
 NSaved= 8 IEnMin= 8 EnMin= -708.262697766071     IErMin= 8 ErrMin= 2.21D-08
 ErrMax= 2.21D-08  0.00D+00 EMaxC= 1.00D-01 BMatC= 1.12D-13 BMatP= 1.96D-12
 IDIUse=1 WtCom= 1.00D+00 WtEn= 0.00D+00
 Coeff-Com:  0.376D-04-0.806D-03-0.795D-03 0.193D-03 0.247D-01 0.639D-01
 Coeff-Com:  0.255D+00 0.658D+00
 Coeff:      0.376D-04-0.806D-03-0.795D-03 0.193D-03 0.247D-01 0.639D-01
 Coeff:      0.255D+00 0.658D+00
 Gap=     0.294 Goal=   None    Shift=    0.000
 RMSDP=2.31D-09 MaxDP=7.63D-08 DE=-6.59D-12 OVMax= 9.22D-08

 SCF Done:  E(RPBE1PBE) =  -708.262697766     A.U. after    8 cycles
            NFock=  8  Conv=0.23D-08     -V/T= 2.3618
 KE= 5.200832106510D+02 PE=-3.022291964437D+03 EE= 1.076235211962D+03
 Leave Link  502 at Thu Apr 25 01:55:46 2024, MaxMem= 10737418240 cpu:             156.4 elap:               4.0
 (Enter /lustre/home/acct-chenxiangyang/chenxiangyang-user1/software/g16/l701.exe)
 ... and contract with generalized density number  0.
 Compute integral first derivatives.
 R6Disp: Adding Grimme-D3(BJ) dispersion energy 1st derivatives to the gradient.
   1 Symmetry operations used in ECPInt.
 ECPInt:  NShTT=    5050 NPrTT=   18521 LenC2=    4998 LenP2D=   14472.
 LDataN:  DoStor=T MaxTD1= 7 Len=  274
 Leave Link  701 at Thu Apr 25 01:55:46 2024, MaxMem= 10737418240 cpu:              13.0 elap:               0.3
 (Enter /lustre/home/acct-chenxiangyang/chenxiangyang-user1/software/g16/l702.exe)
 L702 exits ... SP integral derivatives will be done elsewhere.
 Leave Link  702 at Thu Apr 25 01:55:46 2024, MaxMem= 10737418240 cpu:               0.6 elap:               0.0
 (Enter /lustre/home/acct-chenxiangyang/chenxiangyang-user1/software/g16/l703.exe)
 Integral derivatives from FoFJK, PRISM(SPDF).
 Compute integral first derivatives, UseDBF=F ICtDFT=           0.
 Calling FoFJK, ICntrl=      2127 FMM=F ISym2X=0 I1Cent= 0 IOpClX= 0 NMat=1 NMatS=1 NMatT=0.
 FoFJK:  IHMeth= 1 ICntrl=    2127 DoSepK=F KAlg= 0 I1Cent=           0 FoldK=F
 IRaf=         0 NMat=       1 IRICut=       1 DoRegI=T DoRafI=F ISym2E= 0 IDoP0=0 IntGTp=1.
 FoFCou: FMM=F IPFlag=           0 FMFlag=      100000 FMFlg1=         800
         NFxFlg=           0 DoJE=F BraDBF=F KetDBF=F FulRan=T
         wScrn=  0.000000 ICntrl=      2127 IOpCl=  0 I1Cent=           0 NGrid=           0
         NMat0=    1 NMatS0=      1 NMatT0=    0 NMatD0=    1 NMtDS0=    0 NMtDT0=    0
 Symmetry not used in FoFCou.
 Defaulting to unpruned grid for atomic number  53.
 Defaulting to unpruned grid for atomic number  53.
 Defaulting to unpruned grid for atomic number  53.
 Defaulting to unpruned grid for atomic number  53.
 Defaulting to unpruned grid for atomic number  53.
 Defaulting to unpruned grid for atomic number  53.
 Defaulting to unpruned grid for atomic number  53.
 Defaulting to unpruned grid for atomic number  53.
 Defaulting to unpruned grid for atomic number  53.
 Defaulting to unpruned grid for atomic number  53.
 Defaulting to unpruned grid for atomic number  53.
 Defaulting to unpruned grid for atomic number  53.
 Defaulting to unpruned grid for atomic number  53.
 Defaulting to unpruned grid for atomic number  53.
 Defaulting to unpruned grid for atomic number  53.
 Defaulting to unpruned grid for atomic number  53.
 Defaulting to unpruned grid for atomic number  53.
 Defaulting to unpruned grid for atomic number  53.
 Defaulting to unpruned grid for atomic number  53.
 Defaulting to unpruned grid for atomic number  53.
 Defaulting to unpruned grid for atomic number  53.
 Defaulting to unpruned grid for atomic number  53.
 Defaulting to unpruned grid for atomic number  53.
 Defaulting to unpruned grid for atomic number  53.
 Defaulting to unpruned grid for atomic number  53.
 Defaulting to unpruned grid for atomic number  53.
 Defaulting to unpruned grid for atomic number  53.
 Defaulting to unpruned grid for atomic number  53.
 Defaulting to unpruned grid for atomic number  53.
 Defaulting to unpruned grid for atomic number  53.
 Defaulting to unpruned grid for atomic number  53.
 Defaulting to unpruned grid for atomic number  53.
 Defaulting to unpruned grid for atomic number  53.
 Defaulting to unpruned grid for atomic number  53.
 Defaulting to unpruned grid for atomic number  53.
 Defaulting to unpruned grid for atomic number  53.
 Defaulting to unpruned grid for atomic number  53.
 Defaulting to unpruned grid for atomic number  53.
 Defaulting to unpruned grid for atomic number  53.
 Defaulting to unpruned grid for atomic number  53.
 Leave Link  703 at Thu Apr 25 01:55:47 2024, MaxMem= 10737418240 cpu:              47.8 elap:               1.2
 (Enter /lustre/home/acct-chenxiangyang/chenxiangyang-user1/software/g16/l716.exe)
 Dipole        =-1.62011021D+00-2.32789522D-06-1.85182826D-06
 ***** Axes restored to original set *****
 -------------------------------------------------------------------
 Center     Atomic                   Forces (Hartrees/Bohr)
 Number     Number              X              Y              Z
 -------------------------------------------------------------------
      1        5          -0.000001472   -0.000292861    0.000000614
      2        8           0.000023636    0.000601679    0.000181124
      3        8          -0.000022486    0.000601940   -0.000181615
      4        6          -0.000063355   -0.000480916   -0.000299382
      5        6           0.000063242   -0.000481528    0.000299530
      6        6          -0.000069304    0.000087514   -0.000006728
      7        6          -0.000054899    0.000075297   -0.000012023
      8        6           0.000069116    0.000087952    0.000006747
      9        6           0.000055059    0.000075544    0.000012144
     10        1           0.000003434   -0.000031227   -0.000015418
     11        1          -0.000024279   -0.000009035   -0.000001038
     12        1           0.000013000   -0.000011418    0.000004428
     13        1          -0.000013601   -0.000002886   -0.000009323
     14        1          -0.000004476   -0.000020397    0.000003676
     15        1          -0.000010406   -0.000007108    0.000000906
     16        1          -0.000003366   -0.000031194    0.000015320
     17        1           0.000024277   -0.000009028    0.000001021
     18        1          -0.000013068   -0.000011443   -0.000004534
     19        1           0.000010597   -0.000007086   -0.000000959
     20        1           0.000013626   -0.000002881    0.000009341
     21        1           0.000004477   -0.000020390   -0.000003636
     22       53           0.000000249   -0.000110527   -0.000000193
 -------------------------------------------------------------------
 Cartesian Forces:  Max     0.000601940 RMS     0.000155149
 Leave Link  716 at Thu Apr 25 01:55:48 2024, MaxMem= 10737418240 cpu:               1.0 elap:               0.0
 (Enter /lustre/home/acct-chenxiangyang/chenxiangyang-user1/software/g16/l103.exe)

 GradGradGradGradGradGradGradGradGradGradGradGradGradGradGradGradGradGrad
 Berny optimization.
 Using GEDIIS/GDIIS optimizer.
 FormGI is forming the generalized inverse of G from B-inverse, IUseBI=4.
 Internal  Forces:  Max     0.000432739 RMS     0.000072635
 Search for a local minimum.
 Step number   4 out of a maximum of  128
 All quantities printed in internal units (Hartrees-Bohrs-Radians)
 RMS Force = .72635D-04 SwitMx=.10000D-02 MixMth= 2
 Mixed Optimization -- En-DIIS/RFO-DIIS
 Swapping is turned off.
 Update second derivatives using D2CorX and points    1    2    3    4
 DE= -1.02D-05 DEPred=-8.41D-06 R= 1.22D+00
 TightC=F SS=  1.41D+00  RLast= 1.60D-02 DXNew= 8.4853D-01 4.7913D-02
 Trust test= 1.22D+00 RLast= 1.60D-02 DXMaxT set to 5.05D-01
 ITU=  1  1  1  0
     Eigenvalues ---    0.00443   0.00454   0.00544   0.00546   0.00707
     Eigenvalues ---    0.01989   0.02637   0.03859   0.04318   0.05488
     Eigenvalues ---    0.05488   0.05593   0.05596   0.05787   0.05814
     Eigenvalues ---    0.05819   0.05825   0.05846   0.06278   0.07528
     Eigenvalues ---    0.11159   0.12534   0.14455   0.14832   0.15988
     Eigenvalues ---    0.15999   0.16000   0.16000   0.16000   0.16000
     Eigenvalues ---    0.16000   0.16000   0.16000   0.16000   0.16075
     Eigenvalues ---    0.16253   0.17614   0.20543   0.25000   0.26093
     Eigenvalues ---    0.27424   0.29946   0.30249   0.30681   0.31221
     Eigenvalues ---    0.33613   0.33625   0.33715   0.33719   0.33729
     Eigenvalues ---    0.33731   0.33734   0.33745   0.33752   0.33848
     Eigenvalues ---    0.33990   0.34021   0.37177   0.46027   0.50193
 En-DIIS/RFO-DIIS/Sim-DIIS IScMMF=       -3 using points:     4    3    2
 RFO step:  Lambda=-3.46477943D-06.
 NNeg= 0 NGDIIS= 3 SimSw=  2.50D-01 Rises=F DC= -1.02D-05 SmlDif=  1.00D-05
 NRisDI= 0 DoIntr=F SqrtH=F CThrHd= 10.0 CDAdj=  3.0
 RMS Error=  0.4676717308D-03 NUsed= 3 OKEnD=T EnDIS=F
 InvSVX:  RCond= 4.24D-05 Info=           0 Equed=N FErr=  1.42D-15 BErr=  2.54D-17
 DidBck=F Rises=F RFO-DIIS coefs:    1.03727   -0.01098   -0.02629
 Iteration  1 RMS(Cart)=  0.00072757 RMS(Int)=  0.00000016
 Iteration  2 RMS(Cart)=  0.00000020 RMS(Int)=  0.00000009
 ITry= 1 IFail=0 DXMaxC= 2.01D-03 DCOld= 1.00D+10 DXMaxT= 5.05D-01 DXLimC= 3.00D+00 Rises=F
 Variable       Old X    -DE/DX   Delta X   Delta X   Delta X     New X
                                 (Linear)    (Quad)   (Total)
    R1        2.55878  -0.00011  -0.00007  -0.00053  -0.00060   2.55818
    R2        2.55878  -0.00011  -0.00007  -0.00054  -0.00060   2.55818
    R3        4.02356  -0.00011   0.00140  -0.00133   0.00008   4.02364
    R4        2.73359   0.00043   0.00031   0.00180   0.00212   2.73570
    R5        2.73358   0.00043   0.00031   0.00180   0.00212   2.73570
    R6        2.96803  -0.00025  -0.00006  -0.00103  -0.00109   2.96694
    R7        2.87786  -0.00006  -0.00005  -0.00035  -0.00041   2.87746
    R8        2.86321  -0.00004  -0.00003  -0.00026  -0.00029   2.86292
    R9        2.87786  -0.00006  -0.00005  -0.00035  -0.00041   2.87746
   R10        2.86321  -0.00004  -0.00003  -0.00026  -0.00029   2.86292
   R11        2.07706   0.00004   0.00001   0.00012   0.00013   2.07720
   R12        2.07707  -0.00002  -0.00000  -0.00008  -0.00008   2.07699
   R13        2.07830  -0.00001  -0.00000  -0.00004  -0.00004   2.07825
   R14        2.07738  -0.00002   0.00000  -0.00005  -0.00005   2.07733
   R15        2.07927   0.00002   0.00001   0.00007   0.00008   2.07934
   R16        2.07326   0.00001  -0.00001   0.00000  -0.00000   2.07325
   R17        2.07706   0.00003   0.00001   0.00012   0.00013   2.07720
   R18        2.07707  -0.00002  -0.00000  -0.00008  -0.00008   2.07699
   R19        2.07830  -0.00001  -0.00000  -0.00004  -0.00004   2.07825
   R20        2.07326   0.00001  -0.00001   0.00000  -0.00000   2.07325
   R21        2.07738  -0.00002   0.00000  -0.00005  -0.00005   2.07733
   R22        2.07927   0.00002   0.00001   0.00007   0.00008   2.07934
    A1        2.00501   0.00021   0.00005   0.00132   0.00137   2.00637
    A2        2.13909  -0.00010  -0.00002  -0.00066  -0.00068   2.13841
    A3        2.13909  -0.00010  -0.00002  -0.00066  -0.00068   2.13841
    A4        1.85655  -0.00013  -0.00001  -0.00084  -0.00085   1.85570
    A5        1.85655  -0.00013  -0.00001  -0.00084  -0.00085   1.85570
    A6        1.78178   0.00002  -0.00004   0.00018   0.00014   1.78191
    A7        1.86123  -0.00001  -0.00002  -0.00006  -0.00008   1.86114
    A8        1.89868  -0.00001   0.00003  -0.00037  -0.00034   1.89834
    A9        1.97297  -0.00002  -0.00002  -0.00011  -0.00013   1.97283
   A10        2.00601  -0.00005  -0.00002  -0.00041  -0.00043   2.00557
   A11        1.93029   0.00007   0.00007   0.00072   0.00079   1.93108
   A12        1.78178   0.00002  -0.00004   0.00018   0.00013   1.78191
   A13        1.86123  -0.00001  -0.00002  -0.00007  -0.00008   1.86114
   A14        1.89868  -0.00001   0.00003  -0.00037  -0.00034   1.89834
   A15        1.97296  -0.00002  -0.00002  -0.00011  -0.00013   1.97284
   A16        2.00601  -0.00005  -0.00002  -0.00042  -0.00044   2.00557
   A17        1.93029   0.00007   0.00007   0.00072   0.00079   1.93108
   A18        1.94806   0.00000  -0.00002  -0.00005  -0.00007   1.94799
   A19        1.89858  -0.00002   0.00001  -0.00009  -0.00008   1.89850
   A20        1.94218   0.00002   0.00001   0.00021   0.00022   1.94240
   A21        1.89349   0.00000  -0.00000  -0.00005  -0.00005   1.89344
   A22        1.89560  -0.00001  -0.00001  -0.00007  -0.00009   1.89552
   A23        1.88428   0.00000   0.00002   0.00004   0.00006   1.88434
   A24        1.91284  -0.00000   0.00001   0.00003   0.00004   1.91288
   A25        1.93052   0.00001   0.00001  -0.00000   0.00000   1.93052
   A26        1.94834   0.00000  -0.00002   0.00005   0.00003   1.94837
   A27        1.88721  -0.00000  -0.00001  -0.00006  -0.00006   1.88714
   A28        1.88427   0.00000   0.00001   0.00005   0.00006   1.88433
   A29        1.89907  -0.00001   0.00000  -0.00007  -0.00007   1.89900
   A30        1.94806   0.00000  -0.00002  -0.00005  -0.00007   1.94799
   A31        1.89858  -0.00002   0.00001  -0.00009  -0.00008   1.89850
   A32        1.94218   0.00002   0.00001   0.00021   0.00022   1.94240
   A33        1.89349   0.00000  -0.00000  -0.00005  -0.00005   1.89344
   A34        1.89560  -0.00001  -0.00001  -0.00007  -0.00008   1.89552
   A35        1.88428   0.00000   0.00002   0.00004   0.00006   1.88434
   A36        1.94834   0.00000  -0.00002   0.00005   0.00003   1.94837
   A37        1.91284  -0.00000   0.00001   0.00003   0.00004   1.91288
   A38        1.93052   0.00001   0.00001  -0.00000   0.00000   1.93052
   A39        1.88427   0.00000   0.00001   0.00005   0.00006   1.88433
   A40        1.89907  -0.00001   0.00000  -0.00007  -0.00007   1.89900
   A41        1.88721  -0.00000  -0.00001  -0.00006  -0.00006   1.88714
    D1        0.17124  -0.00002   0.00003  -0.00016  -0.00013   0.17111
    D2       -2.97037  -0.00002   0.00003  -0.00012  -0.00009  -2.97046
    D3        0.17122  -0.00002   0.00003  -0.00012  -0.00009   0.17113
    D4       -2.97035  -0.00002   0.00003  -0.00016  -0.00013  -2.97049
    D5       -0.40379  -0.00002  -0.00011   0.00003  -0.00008  -0.40387
    D6        1.66971  -0.00004  -0.00016  -0.00004  -0.00020   1.66951
    D7       -2.53115   0.00004  -0.00007   0.00058   0.00051  -2.53065
    D8       -0.40378  -0.00002  -0.00011   0.00000  -0.00010  -0.40388
    D9        1.66972  -0.00004  -0.00015  -0.00006  -0.00022   1.66950
   D10       -2.53115   0.00004  -0.00007   0.00056   0.00049  -2.53066
   D11        0.49085   0.00001   0.00009   0.00001   0.00010   0.49095
   D12       -1.50169   0.00002   0.00014   0.00004   0.00018  -1.50151
   D13        2.54277  -0.00002   0.00008  -0.00052  -0.00044   2.54233
   D14       -1.50169   0.00002   0.00014   0.00004   0.00018  -1.50151
   D15        2.78896   0.00003   0.00020   0.00006   0.00025   2.78922
   D16        0.55023  -0.00001   0.00014  -0.00050  -0.00036   0.54987
   D17        2.54277  -0.00002   0.00008  -0.00051  -0.00043   2.54233
   D18        0.55023  -0.00001   0.00014  -0.00049  -0.00035   0.54988
   D19       -1.68850  -0.00005   0.00008  -0.00105  -0.00097  -1.68947
   D20        3.06753   0.00000  -0.00001   0.00032   0.00032   3.06784
   D21        0.97886   0.00001   0.00000   0.00047   0.00047   0.97933
   D22       -1.09485   0.00001  -0.00003   0.00035   0.00032  -1.09454
   D23       -1.27160   0.00001  -0.00008   0.00045   0.00037  -1.27123
   D24        2.92292   0.00002  -0.00007   0.00060   0.00052   2.92344
   D25        0.84920   0.00001  -0.00010   0.00047   0.00037   0.84957
   D26        1.00586  -0.00001  -0.00006   0.00041   0.00035   1.00621
   D27       -1.08281  -0.00001  -0.00006   0.00056   0.00050  -1.08230
   D28        3.12666  -0.00001  -0.00009   0.00043   0.00035   3.12701
   D29       -1.14502  -0.00001  -0.00004  -0.00007  -0.00011  -1.14513
   D30        3.05897  -0.00001  -0.00004  -0.00002  -0.00006   3.05891
   D31        0.94168  -0.00001  -0.00003   0.00004   0.00001   0.94169
   D32       -3.12962   0.00000   0.00001   0.00018   0.00019  -3.12943
   D33        1.07437   0.00000   0.00001   0.00024   0.00024   1.07461
   D34       -1.04292   0.00000   0.00002   0.00030   0.00031  -1.04261
   D35        0.89363   0.00001  -0.00001   0.00005   0.00004   0.89367
   D36       -1.18556   0.00001  -0.00001   0.00010   0.00009  -1.18547
   D37        2.98033   0.00001  -0.00000   0.00016   0.00016   2.98049
   D38        3.06753   0.00000  -0.00001   0.00032   0.00032   3.06784
   D39        0.97886   0.00001  -0.00000   0.00047   0.00047   0.97933
   D40       -1.09485   0.00001  -0.00003   0.00035   0.00032  -1.09454
   D41       -1.27160   0.00001  -0.00008   0.00045   0.00037  -1.27123
   D42        2.92292   0.00002  -0.00007   0.00060   0.00052   2.92344
   D43        0.84920   0.00001  -0.00010   0.00047   0.00037   0.84957
   D44        1.00586  -0.00001  -0.00006   0.00041   0.00035   1.00621
   D45       -1.08281  -0.00001  -0.00006   0.00056   0.00050  -1.08230
   D46        3.12666  -0.00001  -0.00009   0.00044   0.00035   3.12701
   D47        0.94168  -0.00001  -0.00003   0.00004   0.00001   0.94169
   D48       -1.14502  -0.00001  -0.00004  -0.00007  -0.00011  -1.14514
   D49        3.05897  -0.00001  -0.00004  -0.00002  -0.00006   3.05891
   D50       -1.04293   0.00000   0.00001   0.00030   0.00032  -1.04261
   D51       -3.12963   0.00000   0.00000   0.00019   0.00020  -3.12943
   D52        1.07436   0.00000   0.00001   0.00024   0.00025   1.07461
   D53        2.98033   0.00001  -0.00000   0.00016   0.00015   2.98049
   D54        0.89363   0.00001  -0.00001   0.00004   0.00003   0.89366
   D55       -1.18556   0.00001  -0.00001   0.00010   0.00009  -1.18548
         Item               Value     Threshold  Converged?
 Maximum Force            0.000433     0.000450     YES
 RMS     Force            0.000073     0.000300     YES
 Maximum Displacement     0.002006     0.001800     NO 
 RMS     Displacement     0.000728     0.001200     YES
 Predicted change in Energy=-1.729843D-06
 Lowest energy point so far.  Saving SCF results.
 GradGradGradGradGradGradGradGradGradGradGradGradGradGradGradGradGradGrad

 Leave Link  103 at Thu Apr 25 01:55:48 2024, MaxMem= 10737418240 cpu:               1.4 elap:               0.1
 (Enter /lustre/home/acct-chenxiangyang/chenxiangyang-user1/software/g16/l202.exe)
                          Input orientation:                          
 ---------------------------------------------------------------------
 Center     Atomic      Atomic             Coordinates (Angstroms)
 Number     Number       Type             X           Y           Z
 ---------------------------------------------------------------------
      1          5           0       -0.079611   -0.062615    0.000003
      2          8           0        0.608921   -0.790461    0.910361
      3          8           0       -0.768157   -0.790352   -0.910431
      4          6           0        0.560563   -2.163533    0.454198
      5          6           0       -0.719856   -2.163466   -0.454393
      6          6           0        1.844841   -2.409136   -0.326107
      7          6           0        0.486335   -3.075855    1.661407
      8          6           0       -2.004147   -2.409086    0.325885
      9          6           0       -0.645660   -3.075682   -1.661685
     10          1           0        1.928136   -3.456416   -0.649398
     11          1           0        2.702051   -2.174842    0.320664
     12          1           0        1.902766   -1.762284   -1.213637
     13          1           0        1.418111   -2.998952    2.239585
     14          1           0        0.363291   -4.123481    1.348211
     15          1           0       -0.345762   -2.804452    2.322940
     16          1           0       -2.087488   -3.456392    0.649080
     17          1           0       -2.861344   -2.174698   -0.320869
     18          1           0       -2.062049   -1.762312    1.213473
     19          1           0        0.186451   -2.804250   -2.323189
     20          1           0       -1.577430   -2.998691   -2.239859
     21          1           0       -0.522656   -4.123341   -1.348583
     22         53           0       -0.079552    2.066602    0.000086
 ---------------------------------------------------------------------
                    Distance matrix (angstroms):
                    1          2          3          4          5
     1  B    0.000000
     2  O    1.353731   0.000000
     3  O    1.353731   2.282899   0.000000
     4  C    2.242760   1.447670   2.348050   0.000000
     5  C    2.242758   2.348051   1.447670   1.570035   0.000000
     6  C    3.052216   2.382532   3.128842   1.522684   2.579628
     7  C    3.487144   2.408759   3.662189   1.514990   2.600762
     8  C    3.052207   3.128847   2.382531   2.579632   1.522684
     9  C    3.487146   3.662188   2.408759   2.600759   1.514990
    10  H    3.996330   3.358644   3.800794   2.181680   2.953237
    11  H    3.507416   2.577876   3.933796   2.145676   3.508602
    12  H    2.879516   2.670176   2.858393   2.178114   2.759628
    13  H    3.985094   2.701677   4.424962   2.149633   3.539274
    14  H    4.301681   3.370618   4.182271   2.163232   2.874760
    15  H    3.603407   2.638742   3.832715   2.173568   2.874784
    16  H    3.996322   3.800799   3.358643   2.953242   2.181680
    17  H    3.507405   3.933799   2.577873   3.508604   2.145676
    18  H    2.879503   2.858400   2.670175   2.759633   2.178115
    19  H    3.603411   3.832711   2.638740   2.874780   2.173568
    20  H    3.985096   4.424963   2.701678   3.539272   2.149634
    21  H    4.301681   4.182269   3.370617   2.874757   2.163231
    22  I    2.129217   3.076590   3.076589   4.302326   4.302327
                    6          7          8          9         10
     6  C    0.000000
     7  C    2.498052   0.000000
     8  C    3.903819   2.903567   0.000000
     9  C    2.903557   3.510606   2.498053   0.000000
    10  H    1.099204   2.750171   4.184606   2.791793   0.000000
    11  H    1.099098   2.742045   4.712027   3.993542   1.783927
    12  H    1.099765   3.463759   4.248818   2.901764   1.785803
    13  H    2.666976   1.099277   3.965103   4.414175   2.969112
    14  H    2.817323   1.100342   3.096622   3.342954   2.623768
    15  H    3.460125   1.097119   2.625792   4.005089   3.798745
    16  H    4.184608   2.791806   1.099204   2.750171   4.220342
    17  H    4.712024   3.993553   1.099098   2.742046   4.968889
    18  H    4.248821   2.901776   1.099765   3.463760   4.718247
    19  H    2.625778   4.005086   3.460126   1.097119   2.502072
    20  H    3.965093   4.414177   2.666976   1.099277   3.876606
    21  H    3.096610   3.342952   2.817326   1.100342   2.634394
    22  I    4.882819   5.433698   4.882827   5.433695   5.912391
                   11         12         13         14         15
    11  H    0.000000
    12  H    1.778522   0.000000
    13  H    2.451513   3.699863   0.000000
    14  H    3.212918   3.808976   1.780943   0.000000
    15  H    3.700632   4.318491   1.776521   1.786810   0.000000
    16  H    4.968894   4.718246   3.876620   2.634409   2.502088
    17  H    5.600261   4.864552   5.054608   4.120905   3.703305
    18  H    4.864559   4.648723   3.833237   3.387558   2.294039
    19  H    3.703290   2.294022   4.730096   3.905230   4.676512
    20  H    5.054598   3.833223   5.388756   4.231525   4.730102
    21  H    4.120894   3.387546   4.231522   2.838591   3.905232
    22  I    5.082315   4.479182   5.737438   6.350644   5.403118
                   16         17         18         19         20
    16  H    0.000000
    17  H    1.783927   0.000000
    18  H    1.785804   1.778522   0.000000
    19  H    3.798746   3.700632   4.318491   0.000000
    20  H    2.969111   2.451515   3.699864   1.776521   0.000000
    21  H    2.623771   3.212922   3.808978   1.786810   1.780943
    22  I    5.912399   5.082323   4.479195   5.403107   5.737437
                   21         22
    21  H    0.000000
    22  I    6.350640   0.000000
 Stoichiometry    C6H12BIO2
 Framework group  C1[X(C6H12BIO2)]
 Deg. of freedom    60
 Full point group                 C1      NOp   1
 RotChk:  IX=1 Diff= 1.62D-04
 Largest Abelian subgroup         C1      NOp   1
 Largest concise Abelian subgroup C1      NOp   1
                         Standard orientation:                         
 ---------------------------------------------------------------------
 Center     Atomic      Atomic             Coordinates (Angstroms)
 Number     Number       Type             X           Y           Z
 ---------------------------------------------------------------------
      1          5           0        0.182060    0.000005    0.000014
      2          8           0       -0.545731   -1.062963    0.415956
      3          8           0       -0.545732    1.062963   -0.415948
      4          6           0       -1.918824   -0.783263    0.052453
      5          6           0       -1.918825    0.783263   -0.052452
      6          6           0       -2.164432   -1.469929   -1.284234
      7          6           0       -2.831095   -1.351307    1.120294
      8          6           0       -2.164440    1.469934    1.284231
      9          6           0       -2.831092    1.351300   -1.120301
     10          1           0       -3.211725   -1.371916   -1.603331
     11          1           0       -1.930091   -2.538799   -1.181198
     12          1           0       -1.517618   -1.055167   -2.071054
     13          1           0       -2.754146   -2.447874    1.125874
     14          1           0       -3.878737   -1.082694    0.917701
     15          1           0       -2.559682   -0.987962    2.119286
     16          1           0       -3.211734    1.371922    1.603324
     17          1           0       -1.930099    2.538803    1.181192
     18          1           0       -1.517628    1.055176    2.071056
     19          1           0       -2.559670    0.987952   -2.119290
     20          1           0       -2.754147    2.447867   -1.125884
     21          1           0       -3.878734    1.082683   -0.917713
     22         53           0        2.311277   -0.000000   -0.000001
 ---------------------------------------------------------------------
 Rotational constants (GHZ):           1.7594443           0.4034379           0.3800807
 Leave Link  202 at Thu Apr 25 01:55:48 2024, MaxMem= 10737418240 cpu:               0.3 elap:               0.0
 (Enter /lustre/home/acct-chenxiangyang/chenxiangyang-user1/software/g16/l301.exe)
 Standard basis: def2SVP (5D, 7F)
 Ernie: Thresh=  0.10000D-02 Tol=  0.10000D-05 Strict=F.
 There are   223 symmetry adapted cartesian basis functions of A   symmetry.
 There are   212 symmetry adapted basis functions of A   symmetry.
   212 basis functions,   376 primitive gaussians,   223 cartesian basis functions
    47 alpha electrons       47 beta electrons
       nuclear repulsion energy       717.7585827785 Hartrees.
 IExCor= 1009 DFT=T Ex+Corr=PBE1PBE ExCW=0 ScaHFX=  0.250000
 ScaDFX=  0.750000  0.750000  1.000000  1.000000 ScalE2=  1.000000  1.000000
 IRadAn=      5 IRanWt=     -1 IRanGd=            0 ICorTp=0 IEmpDi=141
 NAtoms=   22 NActive=   22 NUniq=   22 SFac= 1.00D+00 NAtFMM=   60 NAOKFM=F Big=F
 Integral buffers will be    131072 words long.
 Raffenetti 2 integral format.
 Two-electron integral symmetry is turned on.
 R6Disp:  Grimme-D3(BJ) Dispersion energy=       -0.0219006016 Hartrees.
 Nuclear repulsion after empirical dispersion term =      717.7366821769 Hartrees.
 Leave Link  301 at Thu Apr 25 01:55:48 2024, MaxMem= 10737418240 cpu:               2.2 elap:               0.1
 (Enter /lustre/home/acct-chenxiangyang/chenxiangyang-user1/software/g16/l302.exe)
 NPDir=0 NMtPBC=     1 NCelOv=     1 NCel=       1 NClECP=     1 NCelD=      1
         NCelK=      1 NCelE2=     1 NClLst=     1 CellRange=     0.0.
 One-electron integrals computed using PRISM.
 One-electron integral symmetry used in STVInt
   1 Symmetry operations used in ECPInt.
 ECPInt:  NShTT=    5050 NPrTT=   18521 LenC2=    4998 LenP2D=   14472.
 LDataN:  DoStor=T MaxTD1= 6 Len=  172
 NBasis=   212 RedAO= T EigKep=  7.46D-04  NBF=   212
 NBsUse=   212 1.00D-06 EigRej= -1.00D+00 NBFU=   212
 Precomputing XC quadrature grid using
 IXCGrd= 4 IRadAn=           5 IRanWt=          -1 IRanGd=           0 AccXCQ= 0.00D+00.
 Defaulting to unpruned grid for atomic number  53.
 Generated NRdTot=       0 NPtTot=           0 NUsed=           0 NTot=          32
 NSgBfM=   223   223   223   223   223 MxSgAt=    22 MxSgA2=    22.
 Leave Link  302 at Thu Apr 25 01:55:48 2024, MaxMem= 10737418240 cpu:              10.3 elap:               0.3
 (Enter /lustre/home/acct-chenxiangyang/chenxiangyang-user1/software/g16/l303.exe)
 DipDrv:  MaxL=1.
 Leave Link  303 at Thu Apr 25 01:55:48 2024, MaxMem= 10737418240 cpu:               1.1 elap:               0.0
 (Enter /lustre/home/acct-chenxiangyang/chenxiangyang-user1/software/g16/l401.exe)
 Initial guess from the checkpoint file:  "I-Bpin-of1.chk"
 B after Tr=     0.000000   -0.000000    0.000000
         Rot=    1.000000   -0.000062    0.000000   -0.000000 Ang=  -0.01 deg.
 Guess basis will be translated and rotated to current coordinates.
 JPrj=2 DoOrth=T DoCkMO=T.
 Leave Link  401 at Thu Apr 25 01:55:48 2024, MaxMem= 10737418240 cpu:               4.2 elap:               0.1
 (Enter /lustre/home/acct-chenxiangyang/chenxiangyang-user1/software/g16/l502.exe)
 Integral symmetry usage will be decided dynamically.
 Closed shell SCF:
 Using DIIS extrapolation, IDIIS=  1040.
 NGot= 10737418240 LenX= 10737307358 LenY= 10737257188
 Requested convergence on RMS density matrix=1.00D-08 within 128 cycles.
 Requested convergence on MAX density matrix=1.00D-06.
 Requested convergence on             energy=1.00D-06.
 No special actions if energy rises.
 Fock matrices will be formed incrementally for  20 cycles.

 Cycle   1  Pass 1  IDiag  1:
 FoFJK:  IHMeth= 1 ICntrl=       0 DoSepK=F KAlg= 0 I1Cent=           0 FoldK=F
 IRaf= 970000000 NMat=       1 IRICut=       1 DoRegI=T DoRafI=F ISym2E= 0 IDoP0=0 IntGTp=1.
 FoFCou: FMM=F IPFlag=           0 FMFlag=      100000 FMFlg1=           0
         NFxFlg=           0 DoJE=F BraDBF=F KetDBF=F FulRan=T
         wScrn=  0.000000 ICntrl=         0 IOpCl=  0 I1Cent=           0 NGrid=           0
         NMat0=    1 NMatS0=      1 NMatT0=    0 NMatD0=    1 NMtDS0=    0 NMtDT0=    0
 Symmetry not used in FoFCou.
 Defaulting to unpruned grid for atomic number  53.
 Defaulting to unpruned grid for atomic number  53.
 Defaulting to unpruned grid for atomic number  53.
 Defaulting to unpruned grid for atomic number  53.
 Defaulting to unpruned grid for atomic number  53.
 Defaulting to unpruned grid for atomic number  53.
 Defaulting to unpruned grid for atomic number  53.
 Defaulting to unpruned grid for atomic number  53.
 Defaulting to unpruned grid for atomic number  53.
 Defaulting to unpruned grid for atomic number  53.
 Defaulting to unpruned grid for atomic number  53.
 Defaulting to unpruned grid for atomic number  53.
 Defaulting to unpruned grid for atomic number  53.
 Defaulting to unpruned grid for atomic number  53.
 Defaulting to unpruned grid for atomic number  53.
 Defaulting to unpruned grid for atomic number  53.
 Defaulting to unpruned grid for atomic number  53.
 Defaulting to unpruned grid for atomic number  53.
 Defaulting to unpruned grid for atomic number  53.
 Defaulting to unpruned grid for atomic number  53.
 Defaulting to unpruned grid for atomic number  53.
 Defaulting to unpruned grid for atomic number  53.
 Defaulting to unpruned grid for atomic number  53.
 Defaulting to unpruned grid for atomic number  53.
 Defaulting to unpruned grid for atomic number  53.
 Defaulting to unpruned grid for atomic number  53.
 Defaulting to unpruned grid for atomic number  53.
 Defaulting to unpruned grid for atomic number  53.
 Defaulting to unpruned grid for atomic number  53.
 Defaulting to unpruned grid for atomic number  53.
 Defaulting to unpruned grid for atomic number  53.
 Defaulting to unpruned grid for atomic number  53.
 Defaulting to unpruned grid for atomic number  53.
 Defaulting to unpruned grid for atomic number  53.
 Defaulting to unpruned grid for atomic number  53.
 Defaulting to unpruned grid for atomic number  53.
 Defaulting to unpruned grid for atomic number  53.
 Defaulting to unpruned grid for atomic number  53.
 Defaulting to unpruned grid for atomic number  53.
 Defaulting to unpruned grid for atomic number  53.
 E= -708.262697304919    
 DIIS: error= 6.94D-05 at cycle   1 NSaved=   1.
 NSaved= 1 IEnMin= 1 EnMin= -708.262697304919     IErMin= 1 ErrMin= 6.94D-05
 ErrMax= 6.94D-05  0.00D+00 EMaxC= 1.00D-01 BMatC= 1.27D-06 BMatP= 1.27D-06
 IDIUse=1 WtCom= 1.00D+00 WtEn= 0.00D+00
 Coeff-Com:  0.100D+01
 Coeff:      0.100D+01
 Gap=     0.596 Goal=   None    Shift=    0.000
 RMSDP=1.21D-05 MaxDP=3.31D-04              OVMax= 3.50D-04

 Cycle   2  Pass 1  IDiag  1:
 RMSU=  1.21D-05    CP:  1.00D+00
 E= -708.262699094608     Delta-E=       -0.000001789689 Rises=F Damp=F
 DIIS: error= 1.41D-05 at cycle   2 NSaved=   2.
 NSaved= 2 IEnMin= 2 EnMin= -708.262699094608     IErMin= 2 ErrMin= 1.41D-05
 ErrMax= 1.41D-05  0.00D+00 EMaxC= 1.00D-01 BMatC= 7.59D-08 BMatP= 1.27D-06
 IDIUse=1 WtCom= 1.00D+00 WtEn= 0.00D+00
 Coeff-Com:  0.527D-01 0.947D+00
 Coeff:      0.527D-01 0.947D+00
 Gap=     0.295 Goal=   None    Shift=    0.000
 RMSDP=2.37D-06 MaxDP=1.43D-04 DE=-1.79D-06 OVMax= 1.35D-04

 Cycle   3  Pass 1  IDiag  1:
 RMSU=  2.34D-06    CP:  1.00D+00  1.03D+00
 E= -708.262699094538     Delta-E=        0.000000000069 Rises=F Damp=F
 DIIS: error= 1.65D-05 at cycle   3 NSaved=   3.
 NSaved= 3 IEnMin= 2 EnMin= -708.262699094608     IErMin= 2 ErrMin= 1.41D-05
 ErrMax= 1.65D-05  0.00D+00 EMaxC= 1.00D-01 BMatC= 9.07D-08 BMatP= 7.59D-08
 IDIUse=1 WtCom= 1.00D+00 WtEn= 0.00D+00
 Coeff-Com: -0.292D-01 0.532D+00 0.497D+00
 Coeff:     -0.292D-01 0.532D+00 0.497D+00
 Gap=     0.295 Goal=   None    Shift=    0.000
 RMSDP=1.27D-06 MaxDP=6.81D-05 DE= 6.93D-11 OVMax= 6.70D-05

 Cycle   4  Pass 1  IDiag  1:
 RMSU=  6.67D-07    CP:  1.00D+00  1.05D+00  5.57D-01
 E= -708.262699163278     Delta-E=       -0.000000068740 Rises=F Damp=F
 DIIS: error= 3.12D-06 at cycle   4 NSaved=   4.
 NSaved= 4 IEnMin= 4 EnMin= -708.262699163278     IErMin= 4 ErrMin= 3.12D-06
 ErrMax= 3.12D-06  0.00D+00 EMaxC= 1.00D-01 BMatC= 2.41D-09 BMatP= 7.59D-08
 IDIUse=1 WtCom= 1.00D+00 WtEn= 0.00D+00
 Coeff-Com: -0.147D-01 0.168D+00 0.216D+00 0.630D+00
 Coeff:     -0.147D-01 0.168D+00 0.216D+00 0.630D+00
 Gap=     0.295 Goal=   None    Shift=    0.000
 RMSDP=2.82D-07 MaxDP=7.44D-06 DE=-6.87D-08 OVMax= 9.04D-06

 Cycle   5  Pass 1  IDiag  1:
 RMSU=  2.08D-07    CP:  1.00D+00  1.05D+00  5.61D-01  7.14D-01
 E= -708.262699165002     Delta-E=       -0.000000001723 Rises=F Damp=F
 DIIS: error= 5.76D-07 at cycle   5 NSaved=   5.
 NSaved= 5 IEnMin= 5 EnMin= -708.262699165002     IErMin= 5 ErrMin= 5.76D-07
 ErrMax= 5.76D-07  0.00D+00 EMaxC= 1.00D-01 BMatC= 1.23D-10 BMatP= 2.41D-09
 IDIUse=1 WtCom= 1.00D+00 WtEn= 0.00D+00
 Coeff-Com: -0.446D-02 0.456D-01 0.684D-01 0.266D+00 0.624D+00
 Coeff:     -0.446D-02 0.456D-01 0.684D-01 0.266D+00 0.624D+00
 Gap=     0.295 Goal=   None    Shift=    0.000
 RMSDP=7.58D-08 MaxDP=3.61D-06 DE=-1.72D-09 OVMax= 4.12D-06

 Cycle   6  Pass 1  IDiag  1:
 RMSU=  5.85D-08    CP:  1.00D+00  1.05D+00  5.72D-01  7.33D-01  8.30D-01
 E= -708.262699165104     Delta-E=       -0.000000000102 Rises=F Damp=F
 DIIS: error= 2.72D-07 at cycle   6 NSaved=   6.
 NSaved= 6 IEnMin= 6 EnMin= -708.262699165104     IErMin= 6 ErrMin= 2.72D-07
 ErrMax= 2.72D-07  0.00D+00 EMaxC= 1.00D-01 BMatC= 1.55D-11 BMatP= 1.23D-10
 IDIUse=1 WtCom= 1.00D+00 WtEn= 0.00D+00
 Coeff-Com: -0.356D-03 0.227D-03 0.399D-02 0.351D-01 0.288D+00 0.673D+00
 Coeff:     -0.356D-03 0.227D-03 0.399D-02 0.351D-01 0.288D+00 0.673D+00
 Gap=     0.295 Goal=   None    Shift=    0.000
 RMSDP=2.65D-08 MaxDP=8.05D-07 DE=-1.02D-10 OVMax= 1.20D-06

 Cycle   7  Pass 1  IDiag  1:
 RMSU=  1.38D-08    CP:  1.00D+00  1.05D+00  5.72D-01  7.37D-01  8.88D-01
                    CP:  6.89D-01
 E= -708.262699165119     Delta-E=       -0.000000000016 Rises=F Damp=F
 DIIS: error= 4.00D-08 at cycle   7 NSaved=   7.
 NSaved= 7 IEnMin= 7 EnMin= -708.262699165119     IErMin= 7 ErrMin= 4.00D-08
 ErrMax= 4.00D-08  0.00D+00 EMaxC= 1.00D-01 BMatC= 4.40D-13 BMatP= 1.55D-11
 IDIUse=1 WtCom= 1.00D+00 WtEn= 0.00D+00
 Coeff-Com:  0.875D-04-0.223D-02-0.204D-02 0.937D-04 0.777D-01 0.245D+00
 Coeff-Com:  0.682D+00
 Coeff:      0.875D-04-0.223D-02-0.204D-02 0.937D-04 0.777D-01 0.245D+00
 Coeff:      0.682D+00
 Gap=     0.295 Goal=   None    Shift=    0.000
 RMSDP=5.07D-09 MaxDP=2.40D-07 DE=-1.59D-11 OVMax= 1.48D-07

 SCF Done:  E(RPBE1PBE) =  -708.262699165     A.U. after    7 cycles
            NFock=  7  Conv=0.51D-08     -V/T= 2.3618
 KE= 5.200833676963D+02 PE=-3.022345281359D+03 EE= 1.076262532321D+03
 Leave Link  502 at Thu Apr 25 01:55:52 2024, MaxMem= 10737418240 cpu:             135.2 elap:               3.4
 (Enter /lustre/home/acct-chenxiangyang/chenxiangyang-user1/software/g16/l701.exe)
 ... and contract with generalized density number  0.
 Compute integral first derivatives.
 R6Disp: Adding Grimme-D3(BJ) dispersion energy 1st derivatives to the gradient.
   1 Symmetry operations used in ECPInt.
 ECPInt:  NShTT=    5050 NPrTT=   18521 LenC2=    4998 LenP2D=   14472.
 LDataN:  DoStor=T MaxTD1= 7 Len=  274
 Leave Link  701 at Thu Apr 25 01:55:52 2024, MaxMem= 10737418240 cpu:              14.7 elap:               0.4
 (Enter /lustre/home/acct-chenxiangyang/chenxiangyang-user1/software/g16/l702.exe)
 L702 exits ... SP integral derivatives will be done elsewhere.
 Leave Link  702 at Thu Apr 25 01:55:52 2024, MaxMem= 10737418240 cpu:               0.6 elap:               0.0
 (Enter /lustre/home/acct-chenxiangyang/chenxiangyang-user1/software/g16/l703.exe)
 Integral derivatives from FoFJK, PRISM(SPDF).
 Compute integral first derivatives, UseDBF=F ICtDFT=           0.
 Calling FoFJK, ICntrl=      2127 FMM=F ISym2X=0 I1Cent= 0 IOpClX= 0 NMat=1 NMatS=1 NMatT=0.
 FoFJK:  IHMeth= 1 ICntrl=    2127 DoSepK=F KAlg= 0 I1Cent=           0 FoldK=F
 IRaf=         0 NMat=       1 IRICut=       1 DoRegI=T DoRafI=F ISym2E= 0 IDoP0=0 IntGTp=1.
 FoFCou: FMM=F IPFlag=           0 FMFlag=      100000 FMFlg1=         800
         NFxFlg=           0 DoJE=F BraDBF=F KetDBF=F FulRan=T
         wScrn=  0.000000 ICntrl=      2127 IOpCl=  0 I1Cent=           0 NGrid=           0
         NMat0=    1 NMatS0=      1 NMatT0=    0 NMatD0=    1 NMtDS0=    0 NMtDT0=    0
 Symmetry not used in FoFCou.
 Defaulting to unpruned grid for atomic number  53.
 Defaulting to unpruned grid for atomic number  53.
 Defaulting to unpruned grid for atomic number  53.
 Defaulting to unpruned grid for atomic number  53.
 Defaulting to unpruned grid for atomic number  53.
 Defaulting to unpruned grid for atomic number  53.
 Defaulting to unpruned grid for atomic number  53.
 Defaulting to unpruned grid for atomic number  53.
 Defaulting to unpruned grid for atomic number  53.
 Defaulting to unpruned grid for atomic number  53.
 Defaulting to unpruned grid for atomic number  53.
 Defaulting to unpruned grid for atomic number  53.
 Defaulting to unpruned grid for atomic number  53.
 Defaulting to unpruned grid for atomic number  53.
 Defaulting to unpruned grid for atomic number  53.
 Defaulting to unpruned grid for atomic number  53.
 Defaulting to unpruned grid for atomic number  53.
 Defaulting to unpruned grid for atomic number  53.
 Defaulting to unpruned grid for atomic number  53.
 Defaulting to unpruned grid for atomic number  53.
 Defaulting to unpruned grid for atomic number  53.
 Defaulting to unpruned grid for atomic number  53.
 Defaulting to unpruned grid for atomic number  53.
 Defaulting to unpruned grid for atomic number  53.
 Defaulting to unpruned grid for atomic number  53.
 Defaulting to unpruned grid for atomic number  53.
 Defaulting to unpruned grid for atomic number  53.
 Defaulting to unpruned grid for atomic number  53.
 Defaulting to unpruned grid for atomic number  53.
 Defaulting to unpruned grid for atomic number  53.
 Defaulting to unpruned grid for atomic number  53.
 Defaulting to unpruned grid for atomic number  53.
 Defaulting to unpruned grid for atomic number  53.
 Defaulting to unpruned grid for atomic number  53.
 Defaulting to unpruned grid for atomic number  53.
 Defaulting to unpruned grid for atomic number  53.
 Defaulting to unpruned grid for atomic number  53.
 Defaulting to unpruned grid for atomic number  53.
 Defaulting to unpruned grid for atomic number  53.
 Defaulting to unpruned grid for atomic number  53.
 Leave Link  703 at Thu Apr 25 01:55:53 2024, MaxMem= 10737418240 cpu:              46.5 elap:               1.2
 (Enter /lustre/home/acct-chenxiangyang/chenxiangyang-user1/software/g16/l716.exe)
 Dipole        =-1.62642231D+00 2.69765976D-06 2.44225083D-06
 ***** Axes restored to original set *****
 -------------------------------------------------------------------
 Center     Atomic                   Forces (Hartrees/Bohr)
 Number     Number              X              Y              Z
 -------------------------------------------------------------------
      1        5           0.000001930    0.000115789   -0.000001208
      2        8           0.000068466   -0.000093621    0.000073917
      3        8          -0.000069991   -0.000093292   -0.000073149
      4        6          -0.000039593    0.000016232   -0.000092897
      5        6           0.000039597    0.000016178    0.000092803
      6        6           0.000033897    0.000026543    0.000046062
      7        6           0.000028649    0.000010095    0.000027684
      8        6          -0.000033485    0.000026091   -0.000045976
      9        6          -0.000028826    0.000010071   -0.000027830
     10        1           0.000003448    0.000010564    0.000009401
     11        1           0.000011033   -0.000004194    0.000001808
     12        1           0.000000976    0.000001551    0.000011515
     13        1           0.000000595   -0.000004019    0.000004052
     14        1           0.000000789   -0.000000199    0.000005438
     15        1           0.000011981   -0.000002290   -0.000004155
     16        1          -0.000003470    0.000010509   -0.000009261
     17        1          -0.000011001   -0.000004192   -0.000001800
     18        1          -0.000000931    0.000001541   -0.000011387
     19        1          -0.000012241   -0.000002349    0.000004205
     20        1          -0.000000631   -0.000004010   -0.000004043
     21        1          -0.000000830   -0.000000215   -0.000005462
     22       53          -0.000000362   -0.000036785    0.000000283
 -------------------------------------------------------------------
 Cartesian Forces:  Max     0.000115789 RMS     0.000036153
 Leave Link  716 at Thu Apr 25 01:55:53 2024, MaxMem= 10737418240 cpu:               1.2 elap:               0.0
 (Enter /lustre/home/acct-chenxiangyang/chenxiangyang-user1/software/g16/l103.exe)

 GradGradGradGradGradGradGradGradGradGradGradGradGradGradGradGradGradGrad
 Berny optimization.
 Using GEDIIS/GDIIS optimizer.
 FormGI is forming the generalized inverse of G from B-inverse, IUseBI=4.
 Internal  Forces:  Max     0.000086637 RMS     0.000020685
 Search for a local minimum.
 Step number   5 out of a maximum of  128
 All quantities printed in internal units (Hartrees-Bohrs-Radians)
 RMS Force = .20685D-04 SwitMx=.10000D-02 MixMth= 2
 Mixed Optimization -- En-DIIS/RFO-DIIS
 Swapping is turned off.
 Update second derivatives using D2CorX and points    1    2    3    4    5
 DE= -1.40D-06 DEPred=-1.73D-06 R= 8.09D-01
 TightC=F SS=  1.41D+00  RLast= 4.86D-03 DXNew= 8.4853D-01 1.4565D-02
 Trust test= 8.09D-01 RLast= 4.86D-03 DXMaxT set to 5.05D-01
 ITU=  1  1  1  1  0
     Eigenvalues ---    0.00443   0.00455   0.00544   0.00546   0.00704
     Eigenvalues ---    0.01989   0.02637   0.03858   0.03981   0.05488
     Eigenvalues ---    0.05489   0.05596   0.05598   0.05797   0.05814
     Eigenvalues ---    0.05824   0.05825   0.05862   0.06282   0.07525
     Eigenvalues ---    0.11687   0.12287   0.14835   0.15201   0.15973
     Eigenvalues ---    0.15999   0.16000   0.16000   0.16000   0.16000
     Eigenvalues ---    0.16000   0.16000   0.16000   0.16011   0.16043
     Eigenvalues ---    0.16470   0.17610   0.20599   0.25000   0.25601
     Eigenvalues ---    0.29036   0.29946   0.30517   0.30681   0.31626
     Eigenvalues ---    0.33613   0.33628   0.33715   0.33726   0.33729
     Eigenvalues ---    0.33732   0.33734   0.33747   0.33752   0.33885
     Eigenvalues ---    0.33990   0.34204   0.37179   0.47100   0.50195
 En-DIIS/RFO-DIIS/Sim-DIIS IScMMF=       -3 using points:     5    4    3    2
 RFO step:  Lambda=-4.02429699D-07.
 NNeg= 0 NGDIIS= 4 SimSw=  2.50D-01 Rises=F DC= -1.40D-06 SmlDif=  1.00D-05
 NRisDI= 0 DoIntr=F SqrtH=F CThrHd= 10.0 CDAdj=  3.0
 RMS Error=  0.3751930694D-03 NUsed= 4 OKEnD=F EnDIS=F
 InvSVX:  RCond= 2.44D-06 Info=           0 Equed=N FErr=  4.22D-15 BErr=  3.78D-17
 DidBck=F Rises=F RFO-DIIS coefs:    0.92729    0.13669   -0.04258   -0.02139
 Iteration  1 RMS(Cart)=  0.00066286 RMS(Int)=  0.00000015
 Iteration  2 RMS(Cart)=  0.00000021 RMS(Int)=  0.00000007
 ITry= 1 IFail=0 DXMaxC= 1.98D-03 DCOld= 1.00D+10 DXMaxT= 5.05D-01 DXLimC= 3.00D+00 Rises=F
 Variable       Old X    -DE/DX   Delta X   Delta X   Delta X     New X
                                 (Linear)    (Quad)   (Total)
    R1        2.55818   0.00007  -0.00005   0.00019   0.00014   2.55832
    R2        2.55818   0.00007  -0.00005   0.00019   0.00014   2.55832
    R3        4.02364  -0.00004   0.00126  -0.00141  -0.00015   4.02349
    R4        2.73570  -0.00004   0.00021  -0.00026  -0.00004   2.73566
    R5        2.73570  -0.00004   0.00021  -0.00026  -0.00004   2.73566
    R6        2.96694   0.00009   0.00003   0.00006   0.00009   2.96703
    R7        2.87746   0.00000  -0.00005   0.00005   0.00001   2.87746
    R8        2.86292   0.00002  -0.00003   0.00009   0.00005   2.86297
    R9        2.87746   0.00000  -0.00005   0.00005   0.00001   2.87746
   R10        2.86292   0.00002  -0.00003   0.00009   0.00005   2.86297
   R11        2.07720  -0.00001  -0.00000  -0.00001  -0.00002   2.07718
   R12        2.07699   0.00001   0.00001   0.00000   0.00001   2.07700
   R13        2.07825  -0.00001  -0.00000  -0.00001  -0.00001   2.07824
   R14        2.07733   0.00000   0.00001  -0.00000   0.00000   2.07733
   R15        2.07934  -0.00000   0.00000   0.00000   0.00000   2.07935
   R16        2.07325  -0.00001  -0.00001  -0.00002  -0.00003   2.07323
   R17        2.07720  -0.00001  -0.00000  -0.00001  -0.00002   2.07718
   R18        2.07699   0.00001   0.00001   0.00000   0.00001   2.07700
   R19        2.07825  -0.00001  -0.00000  -0.00001  -0.00001   2.07824
   R20        2.07325  -0.00001  -0.00001  -0.00002  -0.00003   2.07323
   R21        2.07733   0.00000   0.00001  -0.00000   0.00000   2.07733
   R22        2.07934  -0.00000   0.00000   0.00000   0.00000   2.07935
    A1        2.00637  -0.00001   0.00003  -0.00003   0.00000   2.00637
    A2        2.13841   0.00000  -0.00002   0.00001  -0.00000   2.13841
    A3        2.13841   0.00000  -0.00002   0.00001  -0.00000   2.13841
    A4        1.85570  -0.00001   0.00001  -0.00013  -0.00012   1.85557
    A5        1.85570  -0.00001   0.00001  -0.00013  -0.00012   1.85558
    A6        1.78191   0.00001  -0.00005  -0.00003  -0.00007   1.78184
    A7        1.86114  -0.00002  -0.00005  -0.00024  -0.00029   1.86086
    A8        1.89834  -0.00001   0.00001  -0.00013  -0.00012   1.89821
    A9        1.97283   0.00004   0.00002   0.00032   0.00034   1.97318
   A10        2.00557   0.00002   0.00004   0.00015   0.00019   2.00576
   A11        1.93108  -0.00004   0.00001  -0.00012  -0.00011   1.93097
   A12        1.78191   0.00001  -0.00005  -0.00002  -0.00007   1.78184
   A13        1.86114  -0.00002  -0.00005  -0.00024  -0.00029   1.86086
   A14        1.89834  -0.00001   0.00001  -0.00013  -0.00012   1.89821
   A15        1.97284   0.00004   0.00002   0.00032   0.00034   1.97317
   A16        2.00557   0.00002   0.00004   0.00015   0.00020   2.00577
   A17        1.93108  -0.00004   0.00001  -0.00013  -0.00011   1.93097
   A18        1.94799   0.00000  -0.00002   0.00004   0.00002   1.94800
   A19        1.89850   0.00001   0.00003  -0.00001   0.00003   1.89852
   A20        1.94240  -0.00001  -0.00001   0.00000  -0.00001   1.94240
   A21        1.89344  -0.00001  -0.00001  -0.00003  -0.00004   1.89340
   A22        1.89552   0.00000  -0.00000   0.00003   0.00002   1.89554
   A23        1.88434  -0.00000   0.00001  -0.00003  -0.00002   1.88432
   A24        1.91288   0.00000   0.00002  -0.00003  -0.00001   1.91287
   A25        1.93052   0.00001  -0.00001   0.00007   0.00005   1.93057
   A26        1.94837   0.00000  -0.00002   0.00003   0.00001   1.94838
   A27        1.88714  -0.00001  -0.00001  -0.00003  -0.00003   1.88711
   A28        1.88433  -0.00000   0.00001  -0.00003  -0.00002   1.88431
   A29        1.89900  -0.00000   0.00001  -0.00002  -0.00000   1.89900
   A30        1.94799   0.00000  -0.00002   0.00004   0.00002   1.94800
   A31        1.89850   0.00001   0.00003  -0.00001   0.00003   1.89852
   A32        1.94240  -0.00001  -0.00001   0.00000  -0.00001   1.94240
   A33        1.89344  -0.00001  -0.00001  -0.00003  -0.00004   1.89340
   A34        1.89552   0.00000  -0.00000   0.00003   0.00002   1.89554
   A35        1.88434  -0.00000   0.00001  -0.00003  -0.00002   1.88432
   A36        1.94837   0.00000  -0.00002   0.00003   0.00001   1.94838
   A37        1.91288   0.00000   0.00002  -0.00003  -0.00001   1.91287
   A38        1.93052   0.00001  -0.00001   0.00007   0.00005   1.93057
   A39        1.88433  -0.00000   0.00001  -0.00003  -0.00002   1.88431
   A40        1.89900  -0.00000   0.00001  -0.00002  -0.00000   1.89900
   A41        1.88714  -0.00001  -0.00001  -0.00003  -0.00003   1.88711
    D1        0.17111   0.00001   0.00003   0.00022   0.00025   0.17135
    D2       -2.97046   0.00001   0.00002   0.00019   0.00021  -2.97025
    D3        0.17113   0.00001   0.00002   0.00019   0.00021   0.17134
    D4       -2.97049   0.00001   0.00003   0.00022   0.00025  -2.97024
    D5       -0.40387  -0.00000  -0.00007  -0.00046  -0.00054  -0.40441
    D6        1.66951   0.00004  -0.00009  -0.00021  -0.00031   1.66921
    D7       -2.53065  -0.00002  -0.00010  -0.00056  -0.00066  -2.53131
    D8       -0.40388  -0.00000  -0.00007  -0.00045  -0.00052  -0.40440
    D9        1.66950   0.00004  -0.00009  -0.00020  -0.00029   1.66922
   D10       -2.53066  -0.00002  -0.00010  -0.00055  -0.00065  -2.53130
   D11        0.49095   0.00002   0.00005   0.00063   0.00068   0.49163
   D12       -1.50151   0.00002   0.00013   0.00078   0.00091  -1.50060
   D13        2.54233   0.00002   0.00005   0.00053   0.00058   2.54291
   D14       -1.50151   0.00002   0.00013   0.00078   0.00091  -1.50060
   D15        2.78922   0.00001   0.00021   0.00094   0.00114   2.79036
   D16        0.54987   0.00001   0.00013   0.00068   0.00081   0.55069
   D17        2.54233   0.00002   0.00005   0.00053   0.00058   2.54291
   D18        0.54988   0.00001   0.00013   0.00068   0.00081   0.55068
   D19       -1.68947   0.00001   0.00005   0.00043   0.00048  -1.68899
   D20        3.06784  -0.00002  -0.00013   0.00029   0.00016   3.06800
   D21        0.97933  -0.00002  -0.00013   0.00031   0.00018   0.97951
   D22       -1.09454  -0.00002  -0.00016   0.00036   0.00019  -1.09434
   D23       -1.27123  -0.00000  -0.00021   0.00028   0.00007  -1.27116
   D24        2.92344  -0.00000  -0.00021   0.00030   0.00009   2.92354
   D25        0.84957  -0.00000  -0.00024   0.00034   0.00011   0.84968
   D26        1.00621   0.00002  -0.00012   0.00065   0.00053   1.00674
   D27       -1.08230   0.00002  -0.00012   0.00068   0.00056  -1.08175
   D28        3.12701   0.00002  -0.00015   0.00072   0.00057   3.12758
   D29       -1.14513   0.00002  -0.00004   0.00005   0.00001  -1.14512
   D30        3.05891   0.00002  -0.00004   0.00007   0.00003   3.05894
   D31        0.94169   0.00002  -0.00003   0.00002  -0.00001   0.94167
   D32       -3.12943   0.00001  -0.00001   0.00009   0.00008  -3.12936
   D33        1.07461   0.00001  -0.00001   0.00010   0.00009   1.07470
   D34       -1.04261   0.00001  -0.00000   0.00005   0.00005  -1.04256
   D35        0.89367  -0.00003  -0.00009  -0.00038  -0.00047   0.89320
   D36       -1.18547  -0.00003  -0.00008  -0.00037  -0.00046  -1.18593
   D37        2.98049  -0.00003  -0.00008  -0.00042  -0.00050   2.97999
   D38        3.06784  -0.00002  -0.00013   0.00029   0.00016   3.06800
   D39        0.97933  -0.00002  -0.00013   0.00031   0.00018   0.97951
   D40       -1.09454  -0.00002  -0.00016   0.00036   0.00019  -1.09435
   D41       -1.27123  -0.00000  -0.00021   0.00028   0.00007  -1.27116
   D42        2.92344  -0.00000  -0.00021   0.00030   0.00009   2.92354
   D43        0.84957  -0.00000  -0.00024   0.00035   0.00011   0.84968
   D44        1.00621   0.00002  -0.00012   0.00066   0.00053   1.00674
   D45       -1.08230   0.00002  -0.00012   0.00068   0.00056  -1.08175
   D46        3.12701   0.00002  -0.00015   0.00072   0.00057   3.12758
   D47        0.94169   0.00002  -0.00003   0.00002  -0.00001   0.94167
   D48       -1.14514   0.00002  -0.00004   0.00006   0.00001  -1.14512
   D49        3.05891   0.00002  -0.00004   0.00007   0.00003   3.05894
   D50       -1.04261   0.00001  -0.00000   0.00005   0.00005  -1.04257
   D51       -3.12943   0.00001  -0.00001   0.00008   0.00007  -3.12936
   D52        1.07461   0.00001  -0.00001   0.00010   0.00009   1.07470
   D53        2.98049  -0.00003  -0.00008  -0.00042  -0.00050   2.97999
   D54        0.89366  -0.00003  -0.00009  -0.00038  -0.00047   0.89319
   D55       -1.18548  -0.00003  -0.00009  -0.00037  -0.00045  -1.18593
         Item               Value     Threshold  Converged?
 Maximum Force            0.000087     0.000450     YES
 RMS     Force            0.000021     0.000300     YES
 Maximum Displacement     0.001979     0.001800     NO 
 RMS     Displacement     0.000663     0.001200     YES
 Predicted change in Energy=-1.963126D-07
 Lowest energy point so far.  Saving SCF results.
 GradGradGradGradGradGradGradGradGradGradGradGradGradGradGradGradGradGrad

 Leave Link  103 at Thu Apr 25 01:55:53 2024, MaxMem= 10737418240 cpu:               1.2 elap:               0.1
 (Enter /lustre/home/acct-chenxiangyang/chenxiangyang-user1/software/g16/l202.exe)
                          Input orientation:                          
 ---------------------------------------------------------------------
 Center     Atomic      Atomic             Coordinates (Angstroms)
 Number     Number       Type             X           Y           Z
 ---------------------------------------------------------------------
      1          5           0       -0.079599   -0.062953   -0.000008
      2          8           0        0.608615   -0.790837    0.910667
      3          8           0       -0.767851   -0.790727   -0.910742
      4          6           0        0.560601   -2.163791    0.454187
      5          6           0       -0.719892   -2.163724   -0.454385
      6          6           0        1.845210   -2.408570   -0.325840
      7          6           0        0.486811   -3.076293    1.661323
      8          6           0       -2.004510   -2.408521    0.325621
      9          6           0       -0.646141   -3.076121   -1.661603
     10          1           0        1.928982   -3.455650   -0.649626
     11          1           0        2.702159   -2.174329    0.321304
     12          1           0        1.903199   -1.761237   -1.213005
     13          1           0        1.418646   -2.999168    2.239377
     14          1           0        0.364057   -4.123940    1.348078
     15          1           0       -0.345249   -2.805217    2.323013
     16          1           0       -2.088324   -3.455627    0.649313
     17          1           0       -2.861450   -2.174186   -0.321501
     18          1           0       -2.062471   -1.761265    1.212845
     19          1           0        0.185927   -2.805018   -2.323272
     20          1           0       -1.577976   -2.998908   -2.239648
     21          1           0       -0.523428   -4.123800   -1.348452
     22         53           0       -0.079562    2.066186    0.000093
 ---------------------------------------------------------------------
                    Distance matrix (angstroms):
                    1          2          3          4          5
     1  B    0.000000
     2  O    1.353803   0.000000
     3  O    1.353803   2.283022   0.000000
     4  C    2.242693   1.447647   2.348004   0.000000
     5  C    2.242693   2.348003   1.447647   1.570085   0.000000
     6  C    3.051717   2.382263   3.128516   1.522688   2.579966
     7  C    3.487271   2.408657   3.662445   1.515019   2.600988
     8  C    3.051722   3.128514   2.382263   2.579965   1.522688
     9  C    3.487270   3.662446   2.408657   2.600988   1.515019
    10  H    3.995847   3.358439   3.800382   2.181689   2.953596
    11  H    3.507040   2.577658   3.933606   2.145702   3.508880
    12  H    2.878719   2.669758   2.857929   2.178107   2.760092
    13  H    3.985090   2.701545   4.425069   2.149651   3.539445
    14  H    4.301835   3.370565   4.182558   2.163297   2.875112
    15  H    3.603749   2.638618   3.833267   2.173592   2.875033
    16  H    3.995852   3.800380   3.358439   2.953594   2.181689
    17  H    3.507044   3.933604   2.577658   3.508879   2.145702
    18  H    2.878726   2.857927   2.669759   2.760091   2.178107
    19  H    3.603746   3.833269   2.638617   2.875035   2.173593
    20  H    3.985092   4.425069   2.701547   3.539446   2.149652
    21  H    4.301833   4.182557   3.370565   2.875111   2.163297
    22  I    2.129138   3.076575   3.076575   4.302176   4.302175
                    6          7          8          9         10
     6  C    0.000000
     7  C    2.497983   0.000000
     8  C    3.904452   2.904599   0.000000
     9  C    2.904603   3.510758   2.497982   0.000000
    10  H    1.099196   2.750319   4.185684   2.792741   0.000000
    11  H    1.099102   2.741707   4.712494   3.994529   1.783898
    12  H    1.099757   3.463710   4.249299   2.903325   1.785804
    13  H    2.666665   1.099278   3.966022   4.414399   2.969033
    14  H    2.817500   1.100343   3.098095   3.343143   2.624199
    15  H    3.460038   1.097106   2.626802   4.005133   3.798918
    16  H    4.185683   2.792737   1.099196   2.750318   4.222084
    17  H    4.712495   3.994526   1.099102   2.741706   4.969714
    18  H    4.249298   2.903321   1.099757   3.463710   4.719263
    19  H    2.626809   4.005136   3.460038   1.097106   2.502529
    20  H    3.966026   4.414398   2.666664   1.099278   3.877568
    21  H    3.098095   3.343142   2.817501   1.100343   2.636114
    22  I    4.882051   5.433742   4.882048   5.433743   5.911603
                   11         12         13         14         15
    11  H    0.000000
    12  H    1.778507   0.000000
    13  H    2.450871   3.699488   0.000000
    14  H    3.212782   3.809261   1.780923   0.000000
    15  H    3.700210   4.318430   1.776497   1.786798   0.000000
    16  H    4.969713   4.719263   3.877564   2.636113   2.502522
    17  H    5.600620   4.864894   5.055484   4.122248   3.704446
    18  H    4.864891   4.648795   3.834626   3.389478   2.295901
    19  H    3.704453   2.295908   4.730228   3.905137   4.676549
    20  H    5.055488   3.834632   5.389008   4.231899   4.730223
    21  H    4.122249   3.389479   4.231899   2.838820   3.905133
    22  I    5.081645   4.477959   5.737319   6.350710   5.403435
                   16         17         18         19         20
    16  H    0.000000
    17  H    1.783898   0.000000
    18  H    1.785804   1.778507   0.000000
    19  H    3.798917   3.700209   4.318430   0.000000
    20  H    2.969031   2.450870   3.699487   1.776497   0.000000
    21  H    2.624199   3.212783   3.809261   1.786798   1.780923
    22  I    5.911601   5.081641   4.477955   5.403437   5.737321
                   21         22
    21  H    0.000000
    22  I    6.350710   0.000000
 Stoichiometry    C6H12BIO2
 Framework group  C1[X(C6H12BIO2)]
 Deg. of freedom    60
 Full point group                 C1      NOp   1
 RotChk:  IX=0 Diff= 1.59D-04
 Largest Abelian subgroup         C1      NOp   1
 Largest concise Abelian subgroup C1      NOp   1
                         Standard orientation:                         
 ---------------------------------------------------------------------
 Center     Atomic      Atomic             Coordinates (Angstroms)
 Number     Number       Type             X           Y           Z
 ---------------------------------------------------------------------
      1          5           0        0.181964   -0.000002   -0.000006
      2          8           0       -0.545865   -1.062817    0.416493
      3          8           0       -0.545865    1.062817   -0.416495
      4          6           0       -1.918841   -0.783284    0.052513
      5          6           0       -1.918840    0.783284   -0.052514
      6          6           0       -2.163630   -1.470527   -1.284032
      7          6           0       -2.831289   -1.351542    1.120129
      8          6           0       -2.163627    1.470525    1.284033
      9          6           0       -2.831290    1.351544   -1.120127
     10          1           0       -3.210723   -1.372696   -1.603809
     11          1           0       -1.929342   -2.539358   -1.180423
     12          1           0       -1.516335   -1.056100   -2.070623
     13          1           0       -2.754120   -2.448094    1.125695
     14          1           0       -3.878953   -1.083171    0.917315
     15          1           0       -2.560199   -0.988199    2.119195
     16          1           0       -3.210720    1.372695    1.603811
     17          1           0       -1.929338    2.539356    1.180425
     18          1           0       -1.516332    1.056096    2.070623
     19          1           0       -2.560201    0.988205   -2.119194
     20          1           0       -2.754122    2.448096   -1.125690
     21          1           0       -3.878953    1.083172   -0.917313
     22         53           0        2.311103    0.000000    0.000000
 ---------------------------------------------------------------------
 Rotational constants (GHZ):           1.7591168           0.4034961           0.3801090
 Leave Link  202 at Thu Apr 25 01:55:53 2024, MaxMem= 10737418240 cpu:               0.4 elap:               0.0
 (Enter /lustre/home/acct-chenxiangyang/chenxiangyang-user1/software/g16/l301.exe)
 Standard basis: def2SVP (5D, 7F)
 Ernie: Thresh=  0.10000D-02 Tol=  0.10000D-05 Strict=F.
 There are   223 symmetry adapted cartesian basis functions of A   symmetry.
 There are   212 symmetry adapted basis functions of A   symmetry.
   212 basis functions,   376 primitive gaussians,   223 cartesian basis functions
    47 alpha electrons       47 beta electrons
       nuclear repulsion energy       717.7581814005 Hartrees.
 IExCor= 1009 DFT=T Ex+Corr=PBE1PBE ExCW=0 ScaHFX=  0.250000
 ScaDFX=  0.750000  0.750000  1.000000  1.000000 ScalE2=  1.000000  1.000000
 IRadAn=      5 IRanWt=     -1 IRanGd=            0 ICorTp=0 IEmpDi=141
 NAtoms=   22 NActive=   22 NUniq=   22 SFac= 1.00D+00 NAtFMM=   60 NAOKFM=F Big=F
 Integral buffers will be    131072 words long.
 Raffenetti 2 integral format.
 Two-electron integral symmetry is turned on.
 R6Disp:  Grimme-D3(BJ) Dispersion energy=       -0.0218998701 Hartrees.
 Nuclear repulsion after empirical dispersion term =      717.7362815304 Hartrees.
 Leave Link  301 at Thu Apr 25 01:55:54 2024, MaxMem= 10737418240 cpu:               2.2 elap:               0.1
 (Enter /lustre/home/acct-chenxiangyang/chenxiangyang-user1/software/g16/l302.exe)
 NPDir=0 NMtPBC=     1 NCelOv=     1 NCel=       1 NClECP=     1 NCelD=      1
         NCelK=      1 NCelE2=     1 NClLst=     1 CellRange=     0.0.
 One-electron integrals computed using PRISM.
 One-electron integral symmetry used in STVInt
   1 Symmetry operations used in ECPInt.
 ECPInt:  NShTT=    5050 NPrTT=   18521 LenC2=    4998 LenP2D=   14472.
 LDataN:  DoStor=T MaxTD1= 6 Len=  172
 NBasis=   212 RedAO= T EigKep=  7.47D-04  NBF=   212
 NBsUse=   212 1.00D-06 EigRej= -1.00D+00 NBFU=   212
 Precomputing XC quadrature grid using
 IXCGrd= 4 IRadAn=           5 IRanWt=          -1 IRanGd=           0 AccXCQ= 0.00D+00.
 Defaulting to unpruned grid for atomic number  53.
 Generated NRdTot=       0 NPtTot=           0 NUsed=           0 NTot=          32
 NSgBfM=   223   223   223   223   223 MxSgAt=    22 MxSgA2=    22.
 Leave Link  302 at Thu Apr 25 01:55:54 2024, MaxMem= 10737418240 cpu:              10.2 elap:               0.3
 (Enter /lustre/home/acct-chenxiangyang/chenxiangyang-user1/software/g16/l303.exe)
 DipDrv:  MaxL=1.
 Leave Link  303 at Thu Apr 25 01:55:54 2024, MaxMem= 10737418240 cpu:               1.6 elap:               0.1
 (Enter /lustre/home/acct-chenxiangyang/chenxiangyang-user1/software/g16/l401.exe)
 Initial guess from the checkpoint file:  "I-Bpin-of1.chk"
 B after Tr=    -0.000000    0.000000   -0.000000
         Rot=    1.000000    0.000069   -0.000000    0.000000 Ang=   0.01 deg.
 Guess basis will be translated and rotated to current coordinates.
 JPrj=2 DoOrth=T DoCkMO=T.
 Leave Link  401 at Thu Apr 25 01:55:54 2024, MaxMem= 10737418240 cpu:               5.1 elap:               0.1
 (Enter /lustre/home/acct-chenxiangyang/chenxiangyang-user1/software/g16/l502.exe)
 Integral symmetry usage will be decided dynamically.
 Closed shell SCF:
 Using DIIS extrapolation, IDIIS=  1040.
 NGot= 10737418240 LenX= 10737307358 LenY= 10737257188
 Requested convergence on RMS density matrix=1.00D-08 within 128 cycles.
 Requested convergence on MAX density matrix=1.00D-06.
 Requested convergence on             energy=1.00D-06.
 No special actions if energy rises.
 Fock matrices will be formed incrementally for  20 cycles.

 Cycle   1  Pass 1  IDiag  1:
 FoFJK:  IHMeth= 1 ICntrl=       0 DoSepK=F KAlg= 0 I1Cent=           0 FoldK=F
 IRaf= 970000000 NMat=       1 IRICut=       1 DoRegI=T DoRafI=F ISym2E= 0 IDoP0=0 IntGTp=1.
 FoFCou: FMM=F IPFlag=           0 FMFlag=      100000 FMFlg1=           0
         NFxFlg=           0 DoJE=F BraDBF=F KetDBF=F FulRan=T
         wScrn=  0.000000 ICntrl=         0 IOpCl=  0 I1Cent=           0 NGrid=           0
         NMat0=    1 NMatS0=      1 NMatT0=    0 NMatD0=    1 NMtDS0=    0 NMtDT0=    0
 Symmetry not used in FoFCou.
 Defaulting to unpruned grid for atomic number  53.
 Defaulting to unpruned grid for atomic number  53.
 Defaulting to unpruned grid for atomic number  53.
 Defaulting to unpruned grid for atomic number  53.
 Defaulting to unpruned grid for atomic number  53.
 Defaulting to unpruned grid for atomic number  53.
 Defaulting to unpruned grid for atomic number  53.
 Defaulting to unpruned grid for atomic number  53.
 Defaulting to unpruned grid for atomic number  53.
 Defaulting to unpruned grid for atomic number  53.
 Defaulting to unpruned grid for atomic number  53.
 Defaulting to unpruned grid for atomic number  53.
 Defaulting to unpruned grid for atomic number  53.
 Defaulting to unpruned grid for atomic number  53.
 Defaulting to unpruned grid for atomic number  53.
 Defaulting to unpruned grid for atomic number  53.
 Defaulting to unpruned grid for atomic number  53.
 Defaulting to unpruned grid for atomic number  53.
 Defaulting to unpruned grid for atomic number  53.
 Defaulting to unpruned grid for atomic number  53.
 Defaulting to unpruned grid for atomic number  53.
 Defaulting to unpruned grid for atomic number  53.
 Defaulting to unpruned grid for atomic number  53.
 Defaulting to unpruned grid for atomic number  53.
 Defaulting to unpruned grid for atomic number  53.
 Defaulting to unpruned grid for atomic number  53.
 Defaulting to unpruned grid for atomic number  53.
 Defaulting to unpruned grid for atomic number  53.
 Defaulting to unpruned grid for atomic number  53.
 Defaulting to unpruned grid for atomic number  53.
 Defaulting to unpruned grid for atomic number  53.
 Defaulting to unpruned grid for atomic number  53.
 Defaulting to unpruned grid for atomic number  53.
 Defaulting to unpruned grid for atomic number  53.
 Defaulting to unpruned grid for atomic number  53.
 Defaulting to unpruned grid for atomic number  53.
 Defaulting to unpruned grid for atomic number  53.
 Defaulting to unpruned grid for atomic number  53.
 Defaulting to unpruned grid for atomic number  53.
 Defaulting to unpruned grid for atomic number  53.
 E= -708.262698785809    
 DIIS: error= 2.91D-05 at cycle   1 NSaved=   1.
 NSaved= 1 IEnMin= 1 EnMin= -708.262698785809     IErMin= 1 ErrMin= 2.91D-05
 ErrMax= 2.91D-05  0.00D+00 EMaxC= 1.00D-01 BMatC= 3.45D-07 BMatP= 3.45D-07
 IDIUse=1 WtCom= 1.00D+00 WtEn= 0.00D+00
 Coeff-Com:  0.100D+01
 Coeff:      0.100D+01
 Gap=     0.596 Goal=   None    Shift=    0.000
 RMSDP=6.42D-06 MaxDP=2.21D-04              OVMax= 1.53D-04

 Cycle   2  Pass 1  IDiag  1:
 RMSU=  6.41D-06    CP:  1.00D+00
 E= -708.262699330679     Delta-E=       -0.000000544870 Rises=F Damp=F
 DIIS: error= 4.46D-06 at cycle   2 NSaved=   2.
 NSaved= 2 IEnMin= 2 EnMin= -708.262699330679     IErMin= 2 ErrMin= 4.46D-06
 ErrMax= 4.46D-06  0.00D+00 EMaxC= 1.00D-01 BMatC= 5.28D-09 BMatP= 3.45D-07
 IDIUse=1 WtCom= 1.00D+00 WtEn= 0.00D+00
 Coeff-Com: -0.677D-01 0.107D+01
 Coeff:     -0.677D-01 0.107D+01
 Gap=     0.294 Goal=   None    Shift=    0.000
 RMSDP=7.50D-07 MaxDP=1.38D-05 DE=-5.45D-07 OVMax= 2.59D-05

 Cycle   3  Pass 1  IDiag  1:
 RMSU=  6.22D-07    CP:  1.00D+00  1.07D+00
 E= -708.262699336583     Delta-E=       -0.000000005904 Rises=F Damp=F
 DIIS: error= 3.51D-06 at cycle   3 NSaved=   3.
 NSaved= 3 IEnMin= 3 EnMin= -708.262699336583     IErMin= 3 ErrMin= 3.51D-06
 ErrMax= 3.51D-06  0.00D+00 EMaxC= 1.00D-01 BMatC= 3.32D-09 BMatP= 5.28D-09
 IDIUse=1 WtCom= 1.00D+00 WtEn= 0.00D+00
 Coeff-Com: -0.414D-01 0.514D+00 0.527D+00
 Coeff:     -0.414D-01 0.514D+00 0.527D+00
 Gap=     0.294 Goal=   None    Shift=    0.000
 RMSDP=2.86D-07 MaxDP=9.93D-06 DE=-5.90D-09 OVMax= 9.75D-06

 Cycle   4  Pass 1  IDiag  1:
 RMSU=  2.38D-07    CP:  1.00D+00  1.07D+00  7.47D-01
 E= -708.262699338874     Delta-E=       -0.000000002291 Rises=F Damp=F
 DIIS: error= 9.62D-07 at cycle   4 NSaved=   4.
 NSaved= 4 IEnMin= 4 EnMin= -708.262699338874     IErMin= 4 ErrMin= 9.62D-07
 ErrMax= 9.62D-07  0.00D+00 EMaxC= 1.00D-01 BMatC= 3.02D-10 BMatP= 3.32D-09
 IDIUse=1 WtCom= 1.00D+00 WtEn= 0.00D+00
 Coeff-Com: -0.119D-01 0.126D+00 0.261D+00 0.625D+00
 Coeff:     -0.119D-01 0.126D+00 0.261D+00 0.625D+00
 Gap=     0.294 Goal=   None    Shift=    0.000
 RMSDP=9.66D-08 MaxDP=2.54D-06 DE=-2.29D-09 OVMax= 2.60D-06

 Cycle   5  Pass 1  IDiag  1:
 RMSU=  8.60D-08    CP:  1.00D+00  1.07D+00  7.67D-01  8.30D-01
 E= -708.262699339103     Delta-E=       -0.000000000229 Rises=F Damp=F
 DIIS: error= 2.12D-07 at cycle   5 NSaved=   5.
 NSaved= 5 IEnMin= 5 EnMin= -708.262699339103     IErMin= 5 ErrMin= 2.12D-07
 ErrMax= 2.12D-07  0.00D+00 EMaxC= 1.00D-01 BMatC= 1.10D-11 BMatP= 3.02D-10
 IDIUse=1 WtCom= 1.00D+00 WtEn= 0.00D+00
 Coeff-Com:  0.974D-04-0.830D-02 0.329D-01 0.210D+00 0.766D+00
 Coeff:      0.974D-04-0.830D-02 0.329D-01 0.210D+00 0.766D+00
 Gap=     0.294 Goal=   None    Shift=    0.000
 RMSDP=2.76D-08 MaxDP=4.43D-07 DE=-2.29D-10 OVMax= 7.02D-07

 Cycle   6  Pass 1  IDiag  1:
 RMSU=  1.08D-08    CP:  1.00D+00  1.07D+00  7.91D-01  8.73D-01  7.96D-01
 E= -708.262699339117     Delta-E=       -0.000000000014 Rises=F Damp=F
 DIIS: error= 2.65D-08 at cycle   6 NSaved=   6.
 NSaved= 6 IEnMin= 6 EnMin= -708.262699339117     IErMin= 6 ErrMin= 2.65D-08
 ErrMax= 2.65D-08  0.00D+00 EMaxC= 1.00D-01 BMatC= 3.42D-13 BMatP= 1.10D-11
 IDIUse=1 WtCom= 1.00D+00 WtEn= 0.00D+00
 Coeff-Com:  0.381D-03-0.721D-02 0.269D-02 0.521D-01 0.255D+00 0.697D+00
 Coeff:      0.381D-03-0.721D-02 0.269D-02 0.521D-01 0.255D+00 0.697D+00
 Gap=     0.294 Goal=   None    Shift=    0.000
 RMSDP=6.02D-09 MaxDP=1.42D-07 DE=-1.41D-11 OVMax= 1.70D-07

 SCF Done:  E(RPBE1PBE) =  -708.262699339     A.U. after    6 cycles
            NFock=  6  Conv=0.60D-08     -V/T= 2.3618
 KE= 5.200830534395D+02 PE=-3.022344448451D+03 EE= 1.076262414142D+03
 Leave Link  502 at Thu Apr 25 01:55:57 2024, MaxMem= 10737418240 cpu:             117.0 elap:               3.0
 (Enter /lustre/home/acct-chenxiangyang/chenxiangyang-user1/software/g16/l701.exe)
 ... and contract with generalized density number  0.
 Compute integral first derivatives.
 R6Disp: Adding Grimme-D3(BJ) dispersion energy 1st derivatives to the gradient.
   1 Symmetry operations used in ECPInt.
 ECPInt:  NShTT=    5050 NPrTT=   18521 LenC2=    4998 LenP2D=   14472.
 LDataN:  DoStor=T MaxTD1= 7 Len=  274
 Leave Link  701 at Thu Apr 25 01:55:57 2024, MaxMem= 10737418240 cpu:              12.6 elap:               0.3
 (Enter /lustre/home/acct-chenxiangyang/chenxiangyang-user1/software/g16/l702.exe)
 L702 exits ... SP integral derivatives will be done elsewhere.
 Leave Link  702 at Thu Apr 25 01:55:57 2024, MaxMem= 10737418240 cpu:               0.6 elap:               0.0
 (Enter /lustre/home/acct-chenxiangyang/chenxiangyang-user1/software/g16/l703.exe)
 Integral derivatives from FoFJK, PRISM(SPDF).
 Compute integral first derivatives, UseDBF=F ICtDFT=           0.
 Calling FoFJK, ICntrl=      2127 FMM=F ISym2X=0 I1Cent= 0 IOpClX= 0 NMat=1 NMatS=1 NMatT=0.
 FoFJK:  IHMeth= 1 ICntrl=    2127 DoSepK=F KAlg= 0 I1Cent=           0 FoldK=F
 IRaf=         0 NMat=       1 IRICut=       1 DoRegI=T DoRafI=F ISym2E= 0 IDoP0=0 IntGTp=1.
 FoFCou: FMM=F IPFlag=           0 FMFlag=      100000 FMFlg1=         800
         NFxFlg=           0 DoJE=F BraDBF=F KetDBF=F FulRan=T
         wScrn=  0.000000 ICntrl=      2127 IOpCl=  0 I1Cent=           0 NGrid=           0
         NMat0=    1 NMatS0=      1 NMatT0=    0 NMatD0=    1 NMtDS0=    0 NMtDT0=    0
 Symmetry not used in FoFCou.
 Defaulting to unpruned grid for atomic number  53.
 Defaulting to unpruned grid for atomic number  53.
 Defaulting to unpruned grid for atomic number  53.
 Defaulting to unpruned grid for atomic number  53.
 Defaulting to unpruned grid for atomic number  53.
 Defaulting to unpruned grid for atomic number  53.
 Defaulting to unpruned grid for atomic number  53.
 Defaulting to unpruned grid for atomic number  53.
 Defaulting to unpruned grid for atomic number  53.
 Defaulting to unpruned grid for atomic number  53.
 Defaulting to unpruned grid for atomic number  53.
 Defaulting to unpruned grid for atomic number  53.
 Defaulting to unpruned grid for atomic number  53.
 Defaulting to unpruned grid for atomic number  53.
 Defaulting to unpruned grid for atomic number  53.
 Defaulting to unpruned grid for atomic number  53.
 Defaulting to unpruned grid for atomic number  53.
 Defaulting to unpruned grid for atomic number  53.
 Defaulting to unpruned grid for atomic number  53.
 Defaulting to unpruned grid for atomic number  53.
 Defaulting to unpruned grid for atomic number  53.
 Defaulting to unpruned grid for atomic number  53.
 Defaulting to unpruned grid for atomic number  53.
 Defaulting to unpruned grid for atomic number  53.
 Defaulting to unpruned grid for atomic number  53.
 Defaulting to unpruned grid for atomic number  53.
 Defaulting to unpruned grid for atomic number  53.
 Defaulting to unpruned grid for atomic number  53.
 Defaulting to unpruned grid for atomic number  53.
 Defaulting to unpruned grid for atomic number  53.
 Defaulting to unpruned grid for atomic number  53.
 Defaulting to unpruned grid for atomic number  53.
 Defaulting to unpruned grid for atomic number  53.
 Defaulting to unpruned grid for atomic number  53.
 Defaulting to unpruned grid for atomic number  53.
 Defaulting to unpruned grid for atomic number  53.
 Defaulting to unpruned grid for atomic number  53.
 Defaulting to unpruned grid for atomic number  53.
 Defaulting to unpruned grid for atomic number  53.
 Defaulting to unpruned grid for atomic number  53.
 Leave Link  703 at Thu Apr 25 01:55:59 2024, MaxMem= 10737418240 cpu:              46.9 elap:               1.2
 (Enter /lustre/home/acct-chenxiangyang/chenxiangyang-user1/software/g16/l716.exe)
 Dipole        =-1.62591027D+00-1.24281715D-06-1.67887419D-06
 ***** Axes restored to original set *****
 -------------------------------------------------------------------
 Center     Atomic                   Forces (Hartrees/Bohr)
 Number     Number              X              Y              Z
 -------------------------------------------------------------------
      1        5          -0.000000902    0.000067649    0.000000542
      2        8           0.000011150   -0.000027222    0.000027920
      3        8          -0.000010413   -0.000027304   -0.000028289
      4        6          -0.000038344    0.000014183   -0.000031773
      5        6           0.000038291    0.000014064    0.000031819
      6        6          -0.000001498   -0.000012156   -0.000000053
      7        6           0.000001848   -0.000002528    0.000001515
      8        6           0.000001380   -0.000011958    0.000000010
      9        6          -0.000001730   -0.000002512   -0.000001430
     10        1           0.000003772   -0.000000253    0.000001222
     11        1          -0.000001818   -0.000000095    0.000003693
     12        1          -0.000004175    0.000000279   -0.000001927
     13        1          -0.000002180   -0.000000146    0.000001945
     14        1          -0.000001614   -0.000000621    0.000001413
     15        1          -0.000007353    0.000002809   -0.000001681
     16        1          -0.000003761   -0.000000222   -0.000001281
     17        1           0.000001780   -0.000000106   -0.000003680
     18        1           0.000004161    0.000000284    0.000001865
     19        1           0.000007442    0.000002815    0.000001667
     20        1           0.000002187   -0.000000126   -0.000001950
     21        1           0.000001609   -0.000000633   -0.000001427
     22       53           0.000000168   -0.000016201   -0.000000119
 -------------------------------------------------------------------
 Cartesian Forces:  Max     0.000067649 RMS     0.000014606
 Leave Link  716 at Thu Apr 25 01:55:59 2024, MaxMem= 10737418240 cpu:               0.8 elap:               0.0
 (Enter /lustre/home/acct-chenxiangyang/chenxiangyang-user1/software/g16/l103.exe)

 GradGradGradGradGradGradGradGradGradGradGradGradGradGradGradGradGradGrad
 Berny optimization.
 Using GEDIIS/GDIIS optimizer.
 FormGI is forming the generalized inverse of G from B-inverse, IUseBI=4.
 Internal  Forces:  Max     0.000046037 RMS     0.000007335
 Search for a local minimum.
 Step number   6 out of a maximum of  128
 All quantities printed in internal units (Hartrees-Bohrs-Radians)
 RMS Force = .73355D-05 SwitMx=.10000D-02 MixMth= 2
 Mixed Optimization -- En-DIIS/RFO-DIIS
 Swapping is turned off.
 Update second derivatives using D2CorX and points    1    2    3    4    5
                                                      6
 DE= -1.74D-07 DEPred=-1.96D-07 R= 8.86D-01
 Trust test= 8.86D-01 RLast= 3.41D-03 DXMaxT set to 5.05D-01
 ITU=  0  1  1  1  1  0
     Eigenvalues ---    0.00443   0.00469   0.00544   0.00549   0.00764
     Eigenvalues ---    0.01990   0.02637   0.03855   0.04257   0.05488
     Eigenvalues ---    0.05494   0.05596   0.05601   0.05803   0.05814
     Eigenvalues ---    0.05822   0.05824   0.06246   0.06283   0.07529
     Eigenvalues ---    0.11417   0.12611   0.14835   0.14933   0.15925
     Eigenvalues ---    0.15993   0.16000   0.16000   0.16000   0.16000
     Eigenvalues ---    0.16000   0.16000   0.16000   0.16020   0.16155
     Eigenvalues ---    0.16418   0.17613   0.20668   0.25000   0.27043
     Eigenvalues ---    0.29946   0.30030   0.30681   0.30919   0.32148
     Eigenvalues ---    0.33613   0.33628   0.33715   0.33729   0.33731
     Eigenvalues ---    0.33734   0.33742   0.33751   0.33752   0.33889
     Eigenvalues ---    0.33990   0.34980   0.37179   0.45937   0.50195
 En-DIIS/RFO-DIIS/Sim-DIIS IScMMF=       -3 using points:     6    5    4    3    2
 RFO step:  Lambda=-2.02978596D-08.
 NNeg= 0 NGDIIS= 5 SimSw=  2.50D-01 Rises=F DC= -1.74D-07 SmlDif=  1.00D-05
 NRisDI= 0 DoIntr=F SqrtH=F CThrHd= 10.0 CDAdj=  3.0
 RMS Error=  0.9158014755D-04 NUsed= 5 OKEnD=F EnDIS=F
 InvSVX:  RCond= 7.72D-07 Info=           0 Equed=N FErr=  2.20D-15 BErr=  9.47D-17
 DidBck=F Rises=F RFO-DIIS coefs:    0.85443    0.08549    0.08880   -0.03271    0.00399
 Iteration  1 RMS(Cart)=  0.00011819 RMS(Int)=  0.00000002
 Iteration  2 RMS(Cart)=  0.00000001 RMS(Int)=  0.00000002
 ITry= 1 IFail=0 DXMaxC= 4.51D-04 DCOld= 1.00D+10 DXMaxT= 5.05D-01 DXLimC= 3.00D+00 Rises=F
 Variable       Old X    -DE/DX   Delta X   Delta X   Delta X     New X
                                 (Linear)    (Quad)   (Total)
    R1        2.55832   0.00003  -0.00002   0.00008   0.00006   2.55838
    R2        2.55832   0.00003  -0.00002   0.00008   0.00006   2.55838
    R3        4.02349  -0.00002  -0.00007  -0.00004  -0.00012   4.02337
    R4        2.73566   0.00000  -0.00005   0.00003  -0.00002   2.73564
    R5        2.73566   0.00000  -0.00005   0.00003  -0.00002   2.73563
    R6        2.96703  -0.00005   0.00007  -0.00020  -0.00013   2.96690
    R7        2.87746   0.00000   0.00000   0.00000   0.00000   2.87747
    R8        2.86297   0.00000  -0.00001   0.00002   0.00001   2.86298
    R9        2.87746   0.00000   0.00000   0.00000   0.00000   2.87747
   R10        2.86297   0.00000  -0.00001   0.00002   0.00001   2.86298
   R11        2.07718   0.00000  -0.00001   0.00001  -0.00000   2.07718
   R12        2.07700  -0.00000   0.00001  -0.00001   0.00000   2.07700
   R13        2.07824   0.00000   0.00000   0.00000   0.00001   2.07825
   R14        2.07733   0.00000   0.00000  -0.00000   0.00000   2.07734
   R15        2.07935   0.00000  -0.00001   0.00001  -0.00000   2.07935
   R16        2.07323   0.00000   0.00000   0.00001   0.00001   2.07324
   R17        2.07718   0.00000  -0.00001   0.00001  -0.00000   2.07718
   R18        2.07700  -0.00000   0.00001  -0.00001   0.00000   2.07700
   R19        2.07824   0.00000   0.00000   0.00000   0.00001   2.07824
   R20        2.07323   0.00000   0.00000   0.00001   0.00001   2.07324
   R21        2.07733   0.00000   0.00000  -0.00000   0.00000   2.07734
   R22        2.07935   0.00000  -0.00001   0.00001  -0.00000   2.07935
    A1        2.00637  -0.00002   0.00000  -0.00007  -0.00006   2.00631
    A2        2.13841   0.00001  -0.00000   0.00003   0.00003   2.13844
    A3        2.13841   0.00001  -0.00000   0.00003   0.00003   2.13844
    A4        1.85557  -0.00000   0.00003  -0.00002   0.00001   1.85558
    A5        1.85558  -0.00000   0.00003  -0.00002   0.00000   1.85558
    A6        1.78184   0.00001   0.00001   0.00003   0.00004   1.78188
    A7        1.86086   0.00000   0.00001   0.00004   0.00005   1.86090
    A8        1.89821  -0.00001  -0.00001  -0.00004  -0.00005   1.89816
    A9        1.97318  -0.00001  -0.00001  -0.00000  -0.00001   1.97316
   A10        2.00576  -0.00000   0.00003  -0.00004  -0.00001   2.00576
   A11        1.93097   0.00001  -0.00002   0.00001  -0.00001   1.93095
   A12        1.78184   0.00001   0.00001   0.00003   0.00004   1.78188
   A13        1.86086   0.00000   0.00001   0.00004   0.00005   1.86090
   A14        1.89821  -0.00001  -0.00001  -0.00004  -0.00005   1.89817
   A15        1.97317  -0.00001  -0.00001   0.00000  -0.00001   1.97316
   A16        2.00577  -0.00000   0.00003  -0.00004  -0.00001   2.00576
   A17        1.93097   0.00001  -0.00002   0.00001  -0.00001   1.93095
   A18        1.94800   0.00001  -0.00001   0.00004   0.00003   1.94803
   A19        1.89852  -0.00000   0.00002  -0.00002  -0.00000   1.89852
   A20        1.94240  -0.00001  -0.00001  -0.00002  -0.00004   1.94236
   A21        1.89340  -0.00000   0.00000  -0.00001  -0.00000   1.89339
   A22        1.89554  -0.00000   0.00001  -0.00001  -0.00000   1.89553
   A23        1.88432   0.00000   0.00000   0.00002   0.00002   1.88434
   A24        1.91287   0.00000   0.00001   0.00000   0.00001   1.91288
   A25        1.93057   0.00000  -0.00003   0.00004   0.00001   1.93059
   A26        1.94838  -0.00001   0.00000  -0.00004  -0.00004   1.94834
   A27        1.88711  -0.00000   0.00001  -0.00000   0.00000   1.88711
   A28        1.88431   0.00000  -0.00000   0.00001   0.00001   1.88432
   A29        1.89900   0.00000   0.00001  -0.00001  -0.00000   1.89899
   A30        1.94800   0.00001  -0.00001   0.00004   0.00003   1.94803
   A31        1.89852  -0.00000   0.00002  -0.00002  -0.00000   1.89852
   A32        1.94240  -0.00001  -0.00001  -0.00002  -0.00004   1.94236
   A33        1.89340  -0.00000   0.00000  -0.00001  -0.00000   1.89339
   A34        1.89554  -0.00000   0.00001  -0.00001  -0.00000   1.89553
   A35        1.88432   0.00000   0.00000   0.00002   0.00002   1.88434
   A36        1.94838  -0.00001   0.00000  -0.00004  -0.00004   1.94834
   A37        1.91287   0.00000   0.00001   0.00000   0.00001   1.91288
   A38        1.93057   0.00000  -0.00003   0.00004   0.00002   1.93059
   A39        1.88431   0.00000  -0.00000   0.00001   0.00001   1.88432
   A40        1.89900   0.00000   0.00001  -0.00001  -0.00000   1.89899
   A41        1.88711  -0.00000   0.00001  -0.00000   0.00000   1.88711
    D1        0.17135  -0.00000  -0.00004   0.00001  -0.00003   0.17133
    D2       -2.97025  -0.00000  -0.00004   0.00003  -0.00001  -2.97026
    D3        0.17134  -0.00000  -0.00004   0.00003  -0.00001   0.17133
    D4       -2.97024  -0.00000  -0.00004   0.00001  -0.00003  -2.97027
    D5       -0.40441  -0.00000   0.00011  -0.00008   0.00003  -0.40438
    D6        1.66921  -0.00001   0.00010  -0.00005   0.00005   1.66926
    D7       -2.53131  -0.00000   0.00007  -0.00004   0.00004  -2.53127
    D8       -0.40440  -0.00000   0.00011  -0.00009   0.00002  -0.40438
    D9        1.66922  -0.00001   0.00010  -0.00006   0.00004   1.66926
   D10       -2.53130  -0.00000   0.00007  -0.00004   0.00003  -2.53127
   D11        0.49163   0.00001  -0.00013   0.00011  -0.00002   0.49161
   D12       -1.50060  -0.00000  -0.00014   0.00004  -0.00009  -1.50069
   D13        2.54291  -0.00000  -0.00012   0.00006  -0.00006   2.54285
   D14       -1.50060  -0.00000  -0.00014   0.00004  -0.00009  -1.50069
   D15        2.79036  -0.00001  -0.00014  -0.00002  -0.00016   2.79020
   D16        0.55069  -0.00001  -0.00013  -0.00001  -0.00013   0.55055
   D17        2.54291   0.00000  -0.00012   0.00006  -0.00006   2.54285
   D18        0.55068  -0.00001  -0.00013  -0.00001  -0.00013   0.55055
   D19       -1.68899  -0.00000  -0.00011   0.00001  -0.00010  -1.68909
   D20        3.06800  -0.00001  -0.00015  -0.00005  -0.00020   3.06780
   D21        0.97951  -0.00001  -0.00015  -0.00006  -0.00021   0.97930
   D22       -1.09434  -0.00001  -0.00016  -0.00005  -0.00021  -1.09456
   D23       -1.27116   0.00000  -0.00014   0.00000  -0.00014  -1.27130
   D24        2.92354   0.00000  -0.00015   0.00000  -0.00015   2.92339
   D25        0.84968   0.00000  -0.00015   0.00000  -0.00015   0.84953
   D26        1.00674  -0.00000  -0.00013  -0.00003  -0.00017   1.00658
   D27       -1.08175  -0.00000  -0.00014  -0.00004  -0.00018  -1.08192
   D28        3.12758  -0.00000  -0.00014  -0.00003  -0.00018   3.12740
   D29       -1.14512   0.00000  -0.00000   0.00006   0.00005  -1.14507
   D30        3.05894   0.00000  -0.00000   0.00003   0.00003   3.05897
   D31        0.94167   0.00000   0.00000   0.00005   0.00005   0.94172
   D32       -3.12936  -0.00000  -0.00003   0.00007   0.00004  -3.12931
   D33        1.07470  -0.00001  -0.00002   0.00004   0.00002   1.07472
   D34       -1.04256  -0.00000  -0.00002   0.00006   0.00004  -1.04252
   D35        0.89320   0.00000  -0.00001   0.00009   0.00008   0.89327
   D36       -1.18593   0.00000  -0.00001   0.00006   0.00005  -1.18588
   D37        2.97999   0.00000  -0.00001   0.00008   0.00007   2.98006
   D38        3.06800  -0.00001  -0.00015  -0.00005  -0.00020   3.06780
   D39        0.97951  -0.00001  -0.00016  -0.00006  -0.00021   0.97930
   D40       -1.09435  -0.00001  -0.00016  -0.00005  -0.00021  -1.09456
   D41       -1.27116   0.00000  -0.00014   0.00000  -0.00014  -1.27130
   D42        2.92354   0.00000  -0.00015   0.00000  -0.00015   2.92339
   D43        0.84968   0.00000  -0.00015   0.00000  -0.00015   0.84953
   D44        1.00674  -0.00000  -0.00013  -0.00003  -0.00016   1.00658
   D45       -1.08175  -0.00000  -0.00014  -0.00004  -0.00017  -1.08192
   D46        3.12758  -0.00000  -0.00014  -0.00003  -0.00018   3.12740
   D47        0.94167   0.00000   0.00000   0.00005   0.00005   0.94172
   D48       -1.14512   0.00000  -0.00000   0.00006   0.00006  -1.14507
   D49        3.05894   0.00000  -0.00000   0.00003   0.00003   3.05897
   D50       -1.04257  -0.00000  -0.00002   0.00006   0.00004  -1.04252
   D51       -3.12936  -0.00000  -0.00002   0.00007   0.00005  -3.12931
   D52        1.07470  -0.00001  -0.00002   0.00005   0.00002   1.07472
   D53        2.97999   0.00000  -0.00001   0.00008   0.00007   2.98006
   D54        0.89319   0.00000  -0.00001   0.00009   0.00008   0.89327
   D55       -1.18593   0.00000  -0.00001   0.00006   0.00005  -1.18588
         Item               Value     Threshold  Converged?
 Maximum Force            0.000046     0.000450     YES
 RMS     Force            0.000007     0.000300     YES
 Maximum Displacement     0.000451     0.001800     YES
 RMS     Displacement     0.000118     0.001200     YES
 Predicted change in Energy=-1.419233D-08
 Optimization completed.
    -- Stationary point found.
                           ----------------------------
                           !   Optimized Parameters   !
                           ! (Angstroms and Degrees)  !
 --------------------------                            --------------------------
 ! Name  Definition              Value          Derivative Info.                !
 --------------------------------------------------------------------------------
 ! R1    R(1,2)                  1.3538         -DE/DX =    0.0                 !
 ! R2    R(1,3)                  1.3538         -DE/DX =    0.0                 !
 ! R3    R(1,22)                 2.1291         -DE/DX =    0.0                 !
 ! R4    R(2,4)                  1.4476         -DE/DX =    0.0                 !
 ! R5    R(3,5)                  1.4476         -DE/DX =    0.0                 !
 ! R6    R(4,5)                  1.5701         -DE/DX =    0.0                 !
 ! R7    R(4,6)                  1.5227         -DE/DX =    0.0                 !
 ! R8    R(4,7)                  1.515          -DE/DX =    0.0                 !
 ! R9    R(5,8)                  1.5227         -DE/DX =    0.0                 !
 ! R10   R(5,9)                  1.515          -DE/DX =    0.0                 !
 ! R11   R(6,10)                 1.0992         -DE/DX =    0.0                 !
 ! R12   R(6,11)                 1.0991         -DE/DX =    0.0                 !
 ! R13   R(6,12)                 1.0998         -DE/DX =    0.0                 !
 ! R14   R(7,13)                 1.0993         -DE/DX =    0.0                 !
 ! R15   R(7,14)                 1.1003         -DE/DX =    0.0                 !
 ! R16   R(7,15)                 1.0971         -DE/DX =    0.0                 !
 ! R17   R(8,16)                 1.0992         -DE/DX =    0.0                 !
 ! R18   R(8,17)                 1.0991         -DE/DX =    0.0                 !
 ! R19   R(8,18)                 1.0998         -DE/DX =    0.0                 !
 ! R20   R(9,19)                 1.0971         -DE/DX =    0.0                 !
 ! R21   R(9,20)                 1.0993         -DE/DX =    0.0                 !
 ! R22   R(9,21)                 1.1003         -DE/DX =    0.0                 !
 ! A1    A(2,1,3)              114.9567         -DE/DX =    0.0                 !
 ! A2    A(2,1,22)             122.5217         -DE/DX =    0.0                 !
 ! A3    A(3,1,22)             122.5217         -DE/DX =    0.0                 !
 ! A4    A(1,2,4)              106.3166         -DE/DX =    0.0                 !
 ! A5    A(1,3,5)              106.3166         -DE/DX =    0.0                 !
 ! A6    A(2,4,5)              102.0919         -DE/DX =    0.0                 !
 ! A7    A(2,4,6)              106.6193         -DE/DX =    0.0                 !
 ! A8    A(2,4,7)              108.7596         -DE/DX =    0.0                 !
 ! A9    A(5,4,6)              113.0547         -DE/DX =    0.0                 !
 ! A10   A(5,4,7)              114.9218         -DE/DX =    0.0                 !
 ! A11   A(6,4,7)              110.6362         -DE/DX =    0.0                 !
 ! A12   A(3,5,4)              102.092          -DE/DX =    0.0                 !
 ! A13   A(3,5,8)              106.6193         -DE/DX =    0.0                 !
 ! A14   A(3,5,9)              108.7596         -DE/DX =    0.0                 !
 ! A15   A(4,5,8)              113.0546         -DE/DX =    0.0                 !
 ! A16   A(4,5,9)              114.9219         -DE/DX =    0.0                 !
 ! A17   A(8,5,9)              110.6362         -DE/DX =    0.0                 !
 ! A18   A(4,6,10)             111.6124         -DE/DX =    0.0                 !
 ! A19   A(4,6,11)             108.7774         -DE/DX =    0.0                 !
 ! A20   A(4,6,12)             111.2911         -DE/DX =    0.0                 !
 ! A21   A(10,6,11)            108.4836         -DE/DX =    0.0                 !
 ! A22   A(10,6,12)            108.6063         -DE/DX =    0.0                 !
 ! A23   A(11,6,12)            107.9639         -DE/DX =    0.0                 !
 ! A24   A(4,7,13)             109.5994         -DE/DX =    0.0                 !
 ! A25   A(4,7,14)             110.6137         -DE/DX =    0.0                 !
 ! A26   A(4,7,15)             111.634          -DE/DX =    0.0                 !
 ! A27   A(13,7,14)            108.1234         -DE/DX =    0.0                 !
 ! A28   A(13,7,15)            107.9631         -DE/DX =    0.0                 !
 ! A29   A(14,7,15)            108.8044         -DE/DX =    0.0                 !
 ! A30   A(5,8,16)             111.6124         -DE/DX =    0.0                 !
 ! A31   A(5,8,17)             108.7774         -DE/DX =    0.0                 !
 ! A32   A(5,8,18)             111.2911         -DE/DX =    0.0                 !
 ! A33   A(16,8,17)            108.4836         -DE/DX =    0.0                 !
 ! A34   A(16,8,18)            108.6063         -DE/DX =    0.0                 !
 ! A35   A(17,8,18)            107.9639         -DE/DX =    0.0                 !
 ! A36   A(5,9,19)             111.634          -DE/DX =    0.0                 !
 ! A37   A(5,9,20)             109.5994         -DE/DX =    0.0                 !
 ! A38   A(5,9,21)             110.6137         -DE/DX =    0.0                 !
 ! A39   A(19,9,20)            107.9631         -DE/DX =    0.0                 !
 ! A40   A(19,9,21)            108.8044         -DE/DX =    0.0                 !
 ! A41   A(20,9,21)            108.1234         -DE/DX =    0.0                 !
 ! D1    D(3,1,2,4)              9.8179         -DE/DX =    0.0                 !
 ! D2    D(22,1,2,4)          -170.1828         -DE/DX =    0.0                 !
 ! D3    D(2,1,3,5)              9.8171         -DE/DX =    0.0                 !
 ! D4    D(22,1,3,5)          -170.1822         -DE/DX =    0.0                 !
 ! D5    D(1,2,4,5)            -23.1708         -DE/DX =    0.0                 !
 ! D6    D(1,2,4,6)             95.6386         -DE/DX =    0.0                 !
 ! D7    D(1,2,4,7)           -145.0334         -DE/DX =    0.0                 !
 ! D8    D(1,3,5,4)            -23.1704         -DE/DX =    0.0                 !
 ! D9    D(1,3,5,8)             95.639          -DE/DX =    0.0                 !
 ! D10   D(1,3,5,9)           -145.0331         -DE/DX =    0.0                 !
 ! D11   D(2,4,5,3)             28.1685         -DE/DX =    0.0                 !
 ! D12   D(2,4,5,8)            -85.9778         -DE/DX =    0.0                 !
 ! D13   D(2,4,5,9)            145.6983         -DE/DX =    0.0                 !
 ! D14   D(6,4,5,3)            -85.9778         -DE/DX =    0.0                 !
 ! D15   D(6,4,5,8)            159.8759         -DE/DX =    0.0                 !
 ! D16   D(6,4,5,9)             31.552          -DE/DX =    0.0                 !
 ! D17   D(7,4,5,3)            145.6982         -DE/DX =    0.0                 !
 ! D18   D(7,4,5,8)             31.5519         -DE/DX =    0.0                 !
 ! D19   D(7,4,5,9)            -96.772          -DE/DX =    0.0                 !
 ! D20   D(2,4,6,10)           175.7835         -DE/DX =    0.0                 !
 ! D21   D(2,4,6,11)            56.1221         -DE/DX =    0.0                 !
 ! D22   D(2,4,6,12)           -62.7013         -DE/DX =    0.0                 !
 ! D23   D(5,4,6,10)           -72.8322         -DE/DX =    0.0                 !
 ! D24   D(5,4,6,11)           167.5064         -DE/DX =    0.0                 !
 ! D25   D(5,4,6,12)            48.683          -DE/DX =    0.0                 !
 ! D26   D(7,4,6,10)            57.682          -DE/DX =    0.0                 !
 ! D27   D(7,4,6,11)           -61.9794         -DE/DX =    0.0                 !
 ! D28   D(7,4,6,12)           179.1972         -DE/DX =    0.0                 !
 ! D29   D(2,4,7,13)           -65.6106         -DE/DX =    0.0                 !
 ! D30   D(2,4,7,14)           175.2643         -DE/DX =    0.0                 !
 ! D31   D(2,4,7,15)            53.954          -DE/DX =    0.0                 !
 ! D32   D(5,4,7,13)          -179.299          -DE/DX =    0.0                 !
 ! D33   D(5,4,7,14)            61.5759         -DE/DX =    0.0                 !
 ! D34   D(5,4,7,15)           -59.7344         -DE/DX =    0.0                 !
 ! D35   D(6,4,7,13)            51.1764         -DE/DX =    0.0                 !
 ! D36   D(6,4,7,14)           -67.9488         -DE/DX =    0.0                 !
 ! D37   D(6,4,7,15)           170.741          -DE/DX =    0.0                 !
 ! D38   D(3,5,8,16)           175.7835         -DE/DX =    0.0                 !
 ! D39   D(3,5,8,17)            56.122          -DE/DX =    0.0                 !
 ! D40   D(3,5,8,18)           -62.7014         -DE/DX =    0.0                 !
 ! D41   D(4,5,8,16)           -72.8322         -DE/DX =    0.0                 !
 ! D42   D(4,5,8,17)           167.5064         -DE/DX =    0.0                 !
 ! D43   D(4,5,8,18)            48.6829         -DE/DX =    0.0                 !
 ! D44   D(9,5,8,16)            57.682          -DE/DX =    0.0                 !
 ! D45   D(9,5,8,17)           -61.9795         -DE/DX =    0.0                 !
 ! D46   D(9,5,8,18)           179.1971         -DE/DX =    0.0                 !
 ! D47   D(3,5,9,19)            53.9539         -DE/DX =    0.0                 !
 ! D48   D(3,5,9,20)           -65.6107         -DE/DX =    0.0                 !
 ! D49   D(3,5,9,21)           175.2641         -DE/DX =    0.0                 !
 ! D50   D(4,5,9,19)           -59.7346         -DE/DX =    0.0                 !
 ! D51   D(4,5,9,20)          -179.2992         -DE/DX =    0.0                 !
 ! D52   D(4,5,9,21)            61.5756         -DE/DX =    0.0                 !
 ! D53   D(8,5,9,19)           170.7409         -DE/DX =    0.0                 !
 ! D54   D(8,5,9,20)            51.1763         -DE/DX =    0.0                 !
 ! D55   D(8,5,9,21)           -67.9489         -DE/DX =    0.0                 !
 --------------------------------------------------------------------------------
 Lowest energy point so far.  Saving SCF results.
 Largest change from initial coordinates is atom   12       0.064 Angstoms.
 GradGradGradGradGradGradGradGradGradGradGradGradGradGradGradGradGradGrad

 Leave Link  103 at Thu Apr 25 01:55:59 2024, MaxMem= 10737418240 cpu:               1.3 elap:               0.1
 (Enter /lustre/home/acct-chenxiangyang/chenxiangyang-user1/software/g16/l202.exe)
                          Input orientation:                          
 ---------------------------------------------------------------------
 Center     Atomic      Atomic             Coordinates (Angstroms)
 Number     Number       Type             X           Y           Z
 ---------------------------------------------------------------------
      1          5           0       -0.079599   -0.062953   -0.000008
      2          8           0        0.608615   -0.790837    0.910667
      3          8           0       -0.767851   -0.790727   -0.910742
      4          6           0        0.560601   -2.163791    0.454187
      5          6           0       -0.719892   -2.163724   -0.454385
      6          6           0        1.845210   -2.408570   -0.325840
      7          6           0        0.486811   -3.076293    1.661323
      8          6           0       -2.004510   -2.408521    0.325621
      9          6           0       -0.646141   -3.076121   -1.661603
     10          1           0        1.928982   -3.455650   -0.649626
     11          1           0        2.702159   -2.174329    0.321304
     12          1           0        1.903199   -1.761237   -1.213005
     13          1           0        1.418646   -2.999168    2.239377
     14          1           0        0.364057   -4.123940    1.348078
     15          1           0       -0.345249   -2.805217    2.323013
     16          1           0       -2.088324   -3.455627    0.649313
     17          1           0       -2.861450   -2.174186   -0.321501
     18          1           0       -2.062471   -1.761265    1.212845
     19          1           0        0.185927   -2.805018   -2.323272
     20          1           0       -1.577976   -2.998908   -2.239648
     21          1           0       -0.523428   -4.123800   -1.348452
     22         53           0       -0.079562    2.066186    0.000093
 ---------------------------------------------------------------------
                    Distance matrix (angstroms):
                    1          2          3          4          5
     1  B    0.000000
     2  O    1.353803   0.000000
     3  O    1.353803   2.283022   0.000000
     4  C    2.242693   1.447647   2.348004   0.000000
     5  C    2.242693   2.348003   1.447647   1.570085   0.000000
     6  C    3.051717   2.382263   3.128516   1.522688   2.579966
     7  C    3.487271   2.408657   3.662445   1.515019   2.600988
     8  C    3.051722   3.128514   2.382263   2.579965   1.522688
     9  C    3.487270   3.662446   2.408657   2.600988   1.515019
    10  H    3.995847   3.358439   3.800382   2.181689   2.953596
    11  H    3.507040   2.577658   3.933606   2.145702   3.508880
    12  H    2.878719   2.669758   2.857929   2.178107   2.760092
    13  H    3.985090   2.701545   4.425069   2.149651   3.539445
    14  H    4.301835   3.370565   4.182558   2.163297   2.875112
    15  H    3.603749   2.638618   3.833267   2.173592   2.875033
    16  H    3.995852   3.800380   3.358439   2.953594   2.181689
    17  H    3.507044   3.933604   2.577658   3.508879   2.145702
    18  H    2.878726   2.857927   2.669759   2.760091   2.178107
    19  H    3.603746   3.833269   2.638617   2.875035   2.173593
    20  H    3.985092   4.425069   2.701547   3.539446   2.149652
    21  H    4.301833   4.182557   3.370565   2.875111   2.163297
    22  I    2.129138   3.076575   3.076575   4.302176   4.302175
                    6          7          8          9         10
     6  C    0.000000
     7  C    2.497983   0.000000
     8  C    3.904452   2.904599   0.000000
     9  C    2.904603   3.510758   2.497982   0.000000
    10  H    1.099196   2.750319   4.185684   2.792741   0.000000
    11  H    1.099102   2.741707   4.712494   3.994529   1.783898
    12  H    1.099757   3.463710   4.249299   2.903325   1.785804
    13  H    2.666665   1.099278   3.966022   4.414399   2.969033
    14  H    2.817500   1.100343   3.098095   3.343143   2.624199
    15  H    3.460038   1.097106   2.626802   4.005133   3.798918
    16  H    4.185683   2.792737   1.099196   2.750318   4.222084
    17  H    4.712495   3.994526   1.099102   2.741706   4.969714
    18  H    4.249298   2.903321   1.099757   3.463710   4.719263
    19  H    2.626809   4.005136   3.460038   1.097106   2.502529
    20  H    3.966026   4.414398   2.666664   1.099278   3.877568
    21  H    3.098095   3.343142   2.817501   1.100343   2.636114
    22  I    4.882051   5.433742   4.882048   5.433743   5.911603
                   11         12         13         14         15
    11  H    0.000000
    12  H    1.778507   0.000000
    13  H    2.450871   3.699488   0.000000
    14  H    3.212782   3.809261   1.780923   0.000000
    15  H    3.700210   4.318430   1.776497   1.786798   0.000000
    16  H    4.969713   4.719263   3.877564   2.636113   2.502522
    17  H    5.600620   4.864894   5.055484   4.122248   3.704446
    18  H    4.864891   4.648795   3.834626   3.389478   2.295901
    19  H    3.704453   2.295908   4.730228   3.905137   4.676549
    20  H    5.055488   3.834632   5.389008   4.231899   4.730223
    21  H    4.122249   3.389479   4.231899   2.838820   3.905133
    22  I    5.081645   4.477959   5.737319   6.350710   5.403435
                   16         17         18         19         20
    16  H    0.000000
    17  H    1.783898   0.000000
    18  H    1.785804   1.778507   0.000000
    19  H    3.798917   3.700209   4.318430   0.000000
    20  H    2.969031   2.450870   3.699487   1.776497   0.000000
    21  H    2.624199   3.212783   3.809261   1.786798   1.780923
    22  I    5.911601   5.081641   4.477955   5.403437   5.737321
                   21         22
    21  H    0.000000
    22  I    6.350710   0.000000
 Stoichiometry    C6H12BIO2
 Framework group  C1[X(C6H12BIO2)]
 Deg. of freedom    60
 Full point group                 C1      NOp   1
 RotChk:  IX=0 Diff= 1.06D-15
 Largest Abelian subgroup         C1      NOp   1
 Largest concise Abelian subgroup C1      NOp   1
                         Standard orientation:                         
 ---------------------------------------------------------------------
 Center     Atomic      Atomic             Coordinates (Angstroms)
 Number     Number       Type             X           Y           Z
 ---------------------------------------------------------------------
      1          5           0        0.181964   -0.000002   -0.000006
      2          8           0       -0.545865   -1.062817    0.416493
      3          8           0       -0.545865    1.062817   -0.416495
      4          6           0       -1.918841   -0.783284    0.052513
      5          6           0       -1.918840    0.783284   -0.052514
      6          6           0       -2.163630   -1.470527   -1.284032
      7          6           0       -2.831289   -1.351542    1.120129
      8          6           0       -2.163627    1.470525    1.284033
      9          6           0       -2.831290    1.351544   -1.120127
     10          1           0       -3.210723   -1.372696   -1.603809
     11          1           0       -1.929342   -2.539358   -1.180423
     12          1           0       -1.516335   -1.056100   -2.070623
     13          1           0       -2.754120   -2.448094    1.125695
     14          1           0       -3.878953   -1.083171    0.917315
     15          1           0       -2.560199   -0.988199    2.119195
     16          1           0       -3.210720    1.372695    1.603811
     17          1           0       -1.929338    2.539356    1.180425
     18          1           0       -1.516332    1.056096    2.070623
     19          1           0       -2.560201    0.988205   -2.119194
     20          1           0       -2.754122    2.448096   -1.125690
     21          1           0       -3.878953    1.083172   -0.917313
     22         53           0        2.311103    0.000000    0.000000
 ---------------------------------------------------------------------
 Rotational constants (GHZ):           1.7591168           0.4034961           0.3801090
 Leave Link  202 at Thu Apr 25 01:55:59 2024, MaxMem= 10737418240 cpu:               0.5 elap:               0.0
 (Enter /lustre/home/acct-chenxiangyang/chenxiangyang-user1/software/g16/l601.exe)
 Copying SCF densities to generalized density rwf, IOpCl= 0 IROHF=0.

 **********************************************************************

            Population analysis using the SCF density.

 **********************************************************************

 Orbital symmetries:
       Occupied  (A) (A) (A) (A) (A) (A) (A) (A) (A) (A) (A) (A)
                 (A) (A) (A) (A) (A) (A) (A) (A) (A) (A) (A) (A)
                 (A) (A) (A) (A) (A) (A) (A) (A) (A) (A) (A) (A)
                 (A) (A) (A) (A) (A) (A) (A) (A) (A) (A) (A)
       Virtual   (A) (A) (A) (A) (A) (A) (A) (A) (A) (A) (A) (A)
                 (A) (A) (A) (A) (A) (A) (A) (A) (A) (A) (A) (A)
                 (A) (A) (A) (A) (A) (A) (A) (A) (A) (A) (A) (A)
                 (A) (A) (A) (A) (A) (A) (A) (A) (A) (A) (A) (A)
                 (A) (A) (A) (A) (A) (A) (A) (A) (A) (A) (A) (A)
                 (A) (A) (A) (A) (A) (A) (A) (A) (A) (A) (A) (A)
                 (A) (A) (A) (A) (A) (A) (A) (A) (A) (A) (A) (A)
                 (A) (A) (A) (A) (A) (A) (A) (A) (A) (A) (A) (A)
                 (A) (A) (A) (A) (A) (A) (A) (A) (A) (A) (A) (A)
                 (A) (A) (A) (A) (A) (A) (A) (A) (A) (A) (A) (A)
                 (A) (A) (A) (A) (A) (A) (A) (A) (A) (A) (A) (A)
                 (A) (A) (A) (A) (A) (A) (A) (A) (A) (A) (A) (A)
                 (A) (A) (A) (A) (A) (A) (A) (A) (A) (A) (A) (A)
                 (A) (A) (A) (A) (A) (A) (A) (A) (A)
 The electronic state is 1-A.
 Alpha  occ. eigenvalues --  -19.23227 -19.23219 -10.31149 -10.31136 -10.24114
 Alpha  occ. eigenvalues --  -10.24113 -10.23916 -10.23913  -6.88161  -6.86047
 Alpha  occ. eigenvalues --   -4.89627  -4.88656  -4.88504  -1.92390  -1.92066
 Alpha  occ. eigenvalues --   -1.91938  -1.91091  -1.91087  -1.10667  -1.03245
 Alpha  occ. eigenvalues --   -0.84208  -0.78392  -0.73589  -0.70997  -0.70546
 Alpha  occ. eigenvalues --   -0.64481  -0.59029  -0.57632  -0.50658  -0.50134
 Alpha  occ. eigenvalues --   -0.47989  -0.46977  -0.43074  -0.42880  -0.42567
 Alpha  occ. eigenvalues --   -0.42558  -0.40440  -0.39406  -0.39243  -0.37861
 Alpha  occ. eigenvalues --   -0.37113  -0.36788  -0.35425  -0.33663  -0.30298
 Alpha  occ. eigenvalues --   -0.27099  -0.26529
 Alpha virt. eigenvalues --    0.02920   0.03653   0.05230   0.08951   0.09538
 Alpha virt. eigenvalues --    0.10108   0.10787   0.11699   0.13104   0.13359
 Alpha virt. eigenvalues --    0.14412   0.15259   0.15791   0.16404   0.18149
 Alpha virt. eigenvalues --    0.18590   0.20650   0.21067   0.22423   0.22746
 Alpha virt. eigenvalues --    0.24707   0.27552   0.29319   0.31321   0.34069
 Alpha virt. eigenvalues --    0.39494   0.40658   0.40827   0.42009   0.42433
 Alpha virt. eigenvalues --    0.43648   0.44761   0.44772   0.46130   0.46901
 Alpha virt. eigenvalues --    0.49222   0.51200   0.51860   0.53032   0.54962
 Alpha virt. eigenvalues --    0.56405   0.56448   0.59581   0.60394   0.60460
 Alpha virt. eigenvalues --    0.61282   0.63894   0.63966   0.65027   0.65339
 Alpha virt. eigenvalues --    0.66972   0.68093   0.68371   0.69478   0.70220
 Alpha virt. eigenvalues --    0.70508   0.70836   0.72304   0.72492   0.73150
 Alpha virt. eigenvalues --    0.73653   0.74267   0.75675   0.77129   0.82651
 Alpha virt. eigenvalues --    0.86021   0.93999   0.96611   0.97251   0.98815
 Alpha virt. eigenvalues --    1.01954   1.04641   1.07351   1.10732   1.12677
 Alpha virt. eigenvalues --    1.13734   1.16355   1.22975   1.24484   1.30477
 Alpha virt. eigenvalues --    1.31383   1.32093   1.36206   1.37990   1.41939
 Alpha virt. eigenvalues --    1.45614   1.51094   1.51518   1.52765   1.52798
 Alpha virt. eigenvalues --    1.54104   1.55075   1.55372   1.61199   1.65156
 Alpha virt. eigenvalues --    1.67184   1.70815   1.73224   1.75539   1.75889
 Alpha virt. eigenvalues --    1.77232   1.77466   1.79252   1.79388   1.82313
 Alpha virt. eigenvalues --    1.82562   1.83780   1.85929   1.87029   1.87388
 Alpha virt. eigenvalues --    1.88595   1.89163   1.93104   1.94364   1.96828
 Alpha virt. eigenvalues --    1.98143   1.99908   2.03681   2.07610   2.08582
 Alpha virt. eigenvalues --    2.13061   2.14059   2.16852   2.19960   2.20243
 Alpha virt. eigenvalues --    2.27184   2.29898   2.39098   2.40162   2.42786
 Alpha virt. eigenvalues --    2.43073   2.46151   2.49123   2.53222   2.53647
 Alpha virt. eigenvalues --    2.57223   2.59203   2.64340   2.71475   2.74039
 Alpha virt. eigenvalues --    2.79584   2.79788   2.82774   2.87060   2.90988
 Alpha virt. eigenvalues --    2.92386   2.92928   2.93716   2.94609   2.95290
 Alpha virt. eigenvalues --    2.96865   2.97297   3.03854   3.05916   3.10927
 Alpha virt. eigenvalues --    3.12015   3.21958   3.24613   3.37457   3.47554
 Alpha virt. eigenvalues --    3.56224  18.64281  18.65252  18.97824  56.08339
          Condensed to atoms (all electrons):
               1          2          3          4          5          6
     1  B    3.621247   0.500527   0.500527  -0.101570  -0.101569   0.015958
     2  O    0.500527   7.713126  -0.032644   0.232854  -0.059664  -0.052374
     3  O    0.500527  -0.032644   7.713126  -0.059664   0.232855  -0.002308
     4  C   -0.101570   0.232854  -0.059664   5.304622   0.200753   0.387412
     5  C   -0.101569  -0.059664   0.232855   0.200753   5.304621  -0.081027
     6  C    0.015958  -0.052374  -0.002308   0.387412  -0.081027   4.600090
     7  C    0.002938  -0.049522   0.004478   0.395422  -0.065536  -0.062179
     8  C    0.015958  -0.002308  -0.052374  -0.081027   0.387411   0.011055
     9  C    0.002938   0.004478  -0.049522  -0.065536   0.395422   0.009902
    10  H   -0.001373   0.004848  -0.000005  -0.006478  -0.011802   0.370689
    11  H   -0.002572   0.002132  -0.000175  -0.014358   0.011201   0.381447
    12  H    0.009343  -0.005137   0.002641  -0.006035  -0.010565   0.387339
    13  H   -0.001313  -0.000028  -0.000148  -0.016720   0.011008  -0.008514
    14  H    0.001080   0.004325   0.000027  -0.020069  -0.002505  -0.002381
    15  H    0.000797  -0.000457   0.000035   0.011876  -0.023712   0.007921
    16  H   -0.001373  -0.000005   0.004848  -0.011802  -0.006477  -0.000262
    17  H   -0.002572  -0.000175   0.002132   0.011201  -0.014358  -0.000447
    18  H    0.009342   0.002641  -0.005137  -0.010565  -0.006035   0.000313
    19  H    0.000797   0.000035  -0.000457  -0.023712   0.011876   0.014713
    20  H   -0.001313  -0.000148  -0.000028   0.011008  -0.016720  -0.000379
    21  H    0.001080   0.000027   0.004325  -0.002505  -0.020069  -0.002478
    22  I    0.360170  -0.034260  -0.034260   0.002657   0.002657   0.000053
               7          8          9         10         11         12
     1  B    0.002938   0.015958   0.002938  -0.001373  -0.002572   0.009343
     2  O   -0.049522  -0.002308   0.004478   0.004848   0.002132  -0.005137
     3  O    0.004478  -0.052374  -0.049522  -0.000005  -0.000175   0.002641
     4  C    0.395422  -0.081027  -0.065536  -0.006478  -0.014358  -0.006035
     5  C   -0.065536   0.387411   0.395422  -0.011802   0.011201  -0.010565
     6  C   -0.062179   0.011055   0.009902   0.370689   0.381447   0.387339
     7  C    4.594701   0.009902  -0.002458  -0.001803  -0.010702   0.008335
     8  C    0.009902   4.600090  -0.062179  -0.000262  -0.000447   0.000313
     9  C   -0.002458  -0.062179   4.594702   0.008444   0.000218  -0.004627
    10  H   -0.001803  -0.000262   0.008444   0.635555  -0.017383  -0.023528
    11  H   -0.010702  -0.000447   0.000218  -0.017383   0.606821  -0.019639
    12  H    0.008335   0.000313  -0.004627  -0.023528  -0.019639   0.606457
    13  H    0.384521  -0.000379  -0.000415  -0.000465   0.005628  -0.000009
    14  H    0.381322  -0.002478   0.000561   0.001890  -0.000309  -0.000119
    15  H    0.366477   0.014713   0.000198  -0.000120  -0.000000  -0.000414
    16  H    0.008444   0.370689  -0.001803   0.000009   0.000009  -0.000012
    17  H    0.000218   0.381447  -0.010702   0.000009   0.000015  -0.000026
    18  H   -0.004627   0.387339   0.008335  -0.000012  -0.000026   0.000011
    19  H    0.000198   0.007921   0.366477  -0.001511  -0.000144   0.000832
    20  H   -0.000415  -0.008514   0.384521   0.000113  -0.000001  -0.000104
    21  H    0.000561  -0.002381   0.381322  -0.000236  -0.000054   0.000301
    22  I   -0.000091   0.000053  -0.000091  -0.000002  -0.000137   0.000175
              13         14         15         16         17         18
     1  B   -0.001313   0.001080   0.000797  -0.001373  -0.002572   0.009342
     2  O   -0.000028   0.004325  -0.000457  -0.000005  -0.000175   0.002641
     3  O   -0.000148   0.000027   0.000035   0.004848   0.002132  -0.005137
     4  C   -0.016720  -0.020069   0.011876  -0.011802   0.011201  -0.010565
     5  C    0.011008  -0.002505  -0.023712  -0.006477  -0.014358  -0.006035
     6  C   -0.008514  -0.002381   0.007921  -0.000262  -0.000447   0.000313
     7  C    0.384521   0.381322   0.366477   0.008444   0.000218  -0.004627
     8  C   -0.000379  -0.002478   0.014713   0.370689   0.381447   0.387339
     9  C   -0.000415   0.000561   0.000198  -0.001803  -0.010702   0.008335
    10  H   -0.000465   0.001890  -0.000120   0.000009   0.000009  -0.000012
    11  H    0.005628  -0.000309  -0.000000   0.000009   0.000015  -0.000026
    12  H   -0.000009  -0.000119  -0.000414  -0.000012  -0.000026   0.000011
    13  H    0.613206  -0.020144  -0.019389   0.000113  -0.000001  -0.000104
    14  H   -0.020144   0.634269  -0.019906  -0.000236  -0.000054   0.000301
    15  H   -0.019389  -0.019906   0.616106  -0.001511  -0.000144   0.000832
    16  H    0.000113  -0.000236  -0.001511   0.635555  -0.017383  -0.023528
    17  H   -0.000001  -0.000054  -0.000144  -0.017383   0.606821  -0.019639
    18  H   -0.000104   0.000301   0.000832  -0.023528  -0.019639   0.606457
    19  H   -0.000004  -0.000016  -0.000031  -0.000120  -0.000000  -0.000414
    20  H    0.000018  -0.000111  -0.000004  -0.000465   0.005628  -0.000009
    21  H   -0.000111   0.002191  -0.000016   0.001890  -0.000309  -0.000119
    22  I   -0.000035   0.000016  -0.000056  -0.000002  -0.000137   0.000175
              19         20         21         22
     1  B    0.000797  -0.001313   0.001080   0.360170
     2  O    0.000035  -0.000148   0.000027  -0.034260
     3  O   -0.000457  -0.000028   0.004325  -0.034260
     4  C   -0.023712   0.011008  -0.002505   0.002657
     5  C    0.011876  -0.016720  -0.020069   0.002657
     6  C    0.014713  -0.000379  -0.002478   0.000053
     7  C    0.000198  -0.000415   0.000561  -0.000091
     8  C    0.007921  -0.008514  -0.002381   0.000053
     9  C    0.366477   0.384521   0.381322  -0.000091
    10  H   -0.001511   0.000113  -0.000236  -0.000002
    11  H   -0.000144  -0.000001  -0.000054  -0.000137
    12  H    0.000832  -0.000104   0.000301   0.000175
    13  H   -0.000004   0.000018  -0.000111  -0.000035
    14  H   -0.000016  -0.000111   0.002191   0.000016
    15  H   -0.000031  -0.000004  -0.000016  -0.000056
    16  H   -0.000120  -0.000465   0.001890  -0.000002
    17  H   -0.000000   0.005628  -0.000309  -0.000137
    18  H   -0.000414  -0.000009  -0.000119   0.000175
    19  H    0.616106  -0.019389  -0.019906  -0.000056
    20  H   -0.019389   0.613206  -0.020144  -0.000035
    21  H   -0.019906  -0.020144   0.634269   0.000016
    22  I   -0.000056  -0.000035   0.000016  24.870216
 Mulliken charges:
               1
     1  B    0.170952
     2  O   -0.228274
     3  O   -0.228274
     4  C   -0.137765
     5  C   -0.137765
     6  C    0.025458
     7  C    0.039815
     8  C    0.025458
     9  C    0.039816
    10  H    0.043421
    11  H    0.058477
    12  H    0.054468
    13  H    0.053284
    14  H    0.042347
    15  H    0.046805
    16  H    0.043421
    17  H    0.058477
    18  H    0.054468
    19  H    0.046805
    20  H    0.053284
    21  H    0.042347
    22  I   -0.167025
 Sum of Mulliken charges =  -0.00000
 Mulliken charges with hydrogens summed into heavy atoms:
               1
     1  B    0.170952
     2  O   -0.228274
     3  O   -0.228274
     4  C   -0.137765
     5  C   -0.137765
     6  C    0.181824
     7  C    0.182251
     8  C    0.181824
     9  C    0.182251
    22  I   -0.167025
 Electronic spatial extent (au):  <R**2>=           2326.0812
 Charge=              0.0000 electrons
 Dipole moment (field-independent basis, Debye):
    X=             -4.1327    Y=             -0.0000    Z=             -0.0000  Tot=              4.1327
 Quadrupole moment (field-independent basis, Debye-Ang):
   XX=            -74.1649   YY=            -82.7502   ZZ=            -80.7373
   XY=              0.0000   XZ=              0.0000   YZ=              1.8778
 Traceless Quadrupole moment (field-independent basis, Debye-Ang):
   XX=              5.0526   YY=             -3.5327   ZZ=             -1.5198
   XY=              0.0000   XZ=              0.0000   YZ=              1.8778
 Octapole moment (field-independent basis, Debye-Ang**2):
  XXX=             91.4547  YYY=              0.0000  ZZZ=              0.0000  XYY=             28.2760
  XXY=              0.0000  XXZ=              0.0001  XZZ=             32.2849  YZZ=             -0.0000
  YYZ=              0.0000  XYZ=              0.1409
 Hexadecapole moment (field-independent basis, Debye-Ang**3):
 XXXX=          -2249.4065 YYYY=           -579.9562 ZZZZ=           -408.1782 XXXY=              0.0001
 XXXZ=              0.0002 YYYX=              0.0000 YYYZ=             -2.1871 ZZZX=              0.0000
 ZZZY=             -4.0171 XXYY=           -487.9779 XXZZ=           -463.8003 YYZZ=           -172.1406
 XXYZ=             -1.5107 YYXZ=              0.0000 ZZXY=              0.0000
 N-N= 7.177362815304D+02 E-N=-3.022344462697D+03  KE= 5.200830534395D+02
 No NMR shielding tensors so no spin-rotation constants.
 Leave Link  601 at Thu Apr 25 01:55:59 2024, MaxMem= 10737418240 cpu:               4.2 elap:               0.1
 (Enter /lustre/home/acct-chenxiangyang/chenxiangyang-user1/software/g16/l9999.exe)
 1\1\GINC-CAS402\FOpt\RPBE1PBE\def2SVP\C6H12B1I1O2\CHENXIANGYANG-USER1\
 25-Apr-2024\0\\#p opt freq def2svp em=gd3bj pbe1pbe\\Title Card Requir
 ed\\0,1\B,-0.0795989196,-0.0629527532,-0.0000075911\O,0.6086153678,-0.
 7908374492,0.9106668958\O,-0.767850715,-0.7907270145,-0.9107421008\C,0
 .5606012283,-2.1637912693,0.4541868236\C,-0.7198923871,-2.163723836,-0
 .4543853539\C,1.8452100828,-2.4085703803,-0.3258400714\C,0.4868108764,
 -3.0762931014,1.6613228565\C,-2.0045100719,-2.4085210057,0.325621331\C
 ,-0.6461414253,-3.0761206368,-1.6616032657\H,1.9289819331,-3.455650164
 3,-0.6496262352\H,2.7021588889,-2.1743289175,0.3213041538\H,1.90319933
 34,-1.761236846,-1.2130050882\H,1.4186464784,-2.9991681889,2.239377289
 4\H,0.3640570782,-4.1239401759,1.3480777439\H,-0.3452494052,-2.8052169
 697,2.3230131981\H,-2.0883243805,-3.4556266905,0.6493128703\H,-2.86145
 00602,-2.1741857045,-0.3215005636\H,-2.0624714784,-1.7612654985,1.2128
 45136\H,0.185927419,-2.8050178915,-2.3232718606\H,-1.5779757244,-2.998
 9078054,-2.2396480419\H,-0.5234275873,-4.1238004412,-1.3484519946\I,-0
 .0795619914,2.0661857303,0.0000932985\\Version=ES64L-G16RevA.03\State=
 1-A\HF=-708.2626993\RMSD=6.018e-09\RMSF=1.461e-05\Dipole=-0.0000303,-1
 .6259103,-0.0000746\Quadrupole=-0.9730164,3.7564555,-2.7834391,0.00014
 54,-1.2998384,0.000325\PG=C01 [X(C6H12B1I1O2)]\\@


 ALL MY ATTEMPTS TO ADAPT THE THEORETICAL FOUNDATIONS OF PHYSICS
 TO THESE NEW NOTIONS FAILED COMPLETELY. IT WAS AS IF THE GROUND HAD
 BEEN PULLED OUT FROM UNDER ONE WITH NO FIRM FOUNDATION TO BE SEEN ANYWHERE,
 UPON WHICH ONE COULD HAVE BUILT.  -- A.EINSTEIN
 Leave Link 9999 at Thu Apr 25 01:55:59 2024, MaxMem= 10737418240 cpu:               2.3 elap:               0.1
 Job cpu time:       0 days  0 hours 24 minutes 30.1 seconds.
 Elapsed time:       0 days  0 hours  0 minutes 38.7 seconds.
 File lengths (MBytes):  RWF=     32 Int=      0 D2E=      0 Chk=      5 Scr=      1
 Normal termination of Gaussian 16 at Thu Apr 25 01:55:59 2024.
 (Enter /lustre/home/acct-chenxiangyang/chenxiangyang-user1/software/g16/l1.exe)
 Link1:  Proceeding to internal job step number  2.
 ---------------------------------------------------------------------
 #P Geom=AllCheck Guess=TCheck SCRF=Check GenChk RPBE1PBE/def2SVP Freq
 ---------------------------------------------------------------------
 1/10=4,29=7,30=1,38=1,40=1/1,3;
 2/12=2,40=1/2;
 3/5=43,7=101,11=2,14=-4,25=1,30=1,70=2,71=2,74=-13,116=1,124=41,140=1/1,2,3;
 4/5=101/1;
 5/5=2,38=6,98=1/2;
 8/6=4,10=90,11=11/1;
 11/6=1,8=1,9=11,15=111,16=1/1,2,10;
 10/6=1/2;
 6/7=2,8=2,9=2,10=2,28=1/1;
 7/8=1,10=1,25=1/1,2,3,16;
 1/10=4,30=1/3;
 99//99;
 Leave Link    1 at Thu Apr 25 01:55:59 2024, MaxMem= 10737418240 cpu:               1.0 elap:               0.0
 (Enter /lustre/home/acct-chenxiangyang/chenxiangyang-user1/software/g16/l101.exe)
 Structure from the checkpoint file:  "I-Bpin-of1.chk"
 -------------------
 Title Card Required
 -------------------
 Charge =  0 Multiplicity = 1
 Redundant internal coordinates found in file.  (old form).
 B,0,-0.0795989196,-0.0629527532,-0.0000075911
 O,0,0.6086153678,-0.7908374492,0.9106668958
 O,0,-0.767850715,-0.7907270145,-0.9107421008
 C,0,0.5606012283,-2.1637912693,0.4541868236
 C,0,-0.7198923871,-2.163723836,-0.4543853539
 C,0,1.8452100828,-2.4085703803,-0.3258400714
 C,0,0.4868108764,-3.0762931014,1.6613228565
 C,0,-2.0045100719,-2.4085210057,0.325621331
 C,0,-0.6461414253,-3.0761206368,-1.6616032657
 H,0,1.9289819331,-3.4556501643,-0.6496262352
 H,0,2.7021588889,-2.1743289175,0.3213041538
 H,0,1.9031993334,-1.761236846,-1.2130050882
 H,0,1.4186464784,-2.9991681889,2.2393772894
 H,0,0.3640570782,-4.1239401759,1.3480777439
 H,0,-0.3452494052,-2.8052169697,2.3230131981
 H,0,-2.0883243805,-3.4556266905,0.6493128703
 H,0,-2.8614500602,-2.1741857045,-0.3215005636
 H,0,-2.0624714784,-1.7612654985,1.212845136
 H,0,0.185927419,-2.8050178915,-2.3232718606
 H,0,-1.5779757244,-2.9989078054,-2.2396480419
 H,0,-0.5234275873,-4.1238004412,-1.3484519946
 I,0,-0.0795619914,2.0661857303,0.0000932985
 Recover connectivity data from disk.
 ITRead=  0  0  0  0  0  0  0  0  0  0  0  0  0  0  0  0  0  0  0  0
 ITRead=  0  0
 MicOpt= -1 -1 -1 -1 -1 -1 -1 -1 -1 -1 -1 -1 -1 -1 -1 -1 -1 -1 -1 -1
 MicOpt= -1 -1
 NAtoms=     22 NQM=       22 NQMF=       0 NMMI=      0 NMMIF=      0
                NMic=       0 NMicF=      0.
                    Isotopes and Nuclear Properties:
 (Nuclear quadrupole moments (NQMom) in fm**2, nuclear magnetic moments (NMagM)
  in nuclear magnetons)

  Atom         1           2           3           4           5           6           7           8           9          10
 IAtWgt=          11          16          16          12          12          12          12          12          12           1
 AtmWgt=  11.0093053  15.9949146  15.9949146  12.0000000  12.0000000  12.0000000  12.0000000  12.0000000  12.0000000   1.0078250
 NucSpn=           3           0           0           0           0           0           0           0           0           1
 AtZEff=   2.7500000   5.6000000   5.6000000   3.6000000   3.6000000   3.6000000   3.6000000   3.6000000   3.6000000   1.0000000
 NQMom=    4.0590000   0.0000000   0.0000000   0.0000000   0.0000000   0.0000000   0.0000000   0.0000000   0.0000000   0.0000000
 NMagM=    2.6886370   0.0000000   0.0000000   0.0000000   0.0000000   0.0000000   0.0000000   0.0000000   0.0000000   2.7928460
 AtZNuc=   5.0000000   8.0000000   8.0000000   6.0000000   6.0000000   6.0000000   6.0000000   6.0000000   6.0000000   1.0000000

  Atom        11          12          13          14          15          16          17          18          19          20
 IAtWgt=           1           1           1           1           1           1           1           1           1           1
 AtmWgt=   1.0078250   1.0078250   1.0078250   1.0078250   1.0078250   1.0078250   1.0078250   1.0078250   1.0078250   1.0078250
 NucSpn=           1           1           1           1           1           1           1           1           1           1
 AtZEff=   1.0000000   1.0000000   1.0000000   1.0000000   1.0000000   1.0000000   1.0000000   1.0000000   1.0000000   1.0000000
 NQMom=    0.0000000   0.0000000   0.0000000   0.0000000   0.0000000   0.0000000   0.0000000   0.0000000   0.0000000   0.0000000
 NMagM=    2.7928460   2.7928460   2.7928460   2.7928460   2.7928460   2.7928460   2.7928460   2.7928460   2.7928460   2.7928460
 AtZNuc=   1.0000000   1.0000000   1.0000000   1.0000000   1.0000000   1.0000000   1.0000000   1.0000000   1.0000000   1.0000000

  Atom        21          22
 IAtWgt=           1         127
 AtmWgt=   1.0078250 126.9004000
 NucSpn=           1           5
 AtZEff=   1.00000005830.0000000
 NQMom=    0.0000000 -71.0000000
 NMagM=    2.7928460   2.8132800
 AtZNuc=   1.0000000  53.0000000
 Leave Link  101 at Thu Apr 25 01:56:00 2024, MaxMem= 10737418240 cpu:              12.5 elap:               0.3
 (Enter /lustre/home/acct-chenxiangyang/chenxiangyang-user1/software/g16/l103.exe)

 GradGradGradGradGradGradGradGradGradGradGradGradGradGradGradGradGradGrad
 Berny optimization.
 Initialization pass.
                           ----------------------------
                           !    Initial Parameters    !
                           ! (Angstroms and Degrees)  !
 --------------------------                            --------------------------
 ! Name  Definition              Value          Derivative Info.                !
 --------------------------------------------------------------------------------
 ! R1    R(1,2)                  1.3538         calculate D2E/DX2 analytically  !
 ! R2    R(1,3)                  1.3538         calculate D2E/DX2 analytically  !
 ! R3    R(1,22)                 2.1291         calculate D2E/DX2 analytically  !
 ! R4    R(2,4)                  1.4476         calculate D2E/DX2 analytically  !
 ! R5    R(3,5)                  1.4476         calculate D2E/DX2 analytically  !
 ! R6    R(4,5)                  1.5701         calculate D2E/DX2 analytically  !
 ! R7    R(4,6)                  1.5227         calculate D2E/DX2 analytically  !
 ! R8    R(4,7)                  1.515          calculate D2E/DX2 analytically  !
 ! R9    R(5,8)                  1.5227         calculate D2E/DX2 analytically  !
 ! R10   R(5,9)                  1.515          calculate D2E/DX2 analytically  !
 ! R11   R(6,10)                 1.0992         calculate D2E/DX2 analytically  !
 ! R12   R(6,11)                 1.0991         calculate D2E/DX2 analytically  !
 ! R13   R(6,12)                 1.0998         calculate D2E/DX2 analytically  !
 ! R14   R(7,13)                 1.0993         calculate D2E/DX2 analytically  !
 ! R15   R(7,14)                 1.1003         calculate D2E/DX2 analytically  !
 ! R16   R(7,15)                 1.0971         calculate D2E/DX2 analytically  !
 ! R17   R(8,16)                 1.0992         calculate D2E/DX2 analytically  !
 ! R18   R(8,17)                 1.0991         calculate D2E/DX2 analytically  !
 ! R19   R(8,18)                 1.0998         calculate D2E/DX2 analytically  !
 ! R20   R(9,19)                 1.0971         calculate D2E/DX2 analytically  !
 ! R21   R(9,20)                 1.0993         calculate D2E/DX2 analytically  !
 ! R22   R(9,21)                 1.1003         calculate D2E/DX2 analytically  !
 ! A1    A(2,1,3)              114.9567         calculate D2E/DX2 analytically  !
 ! A2    A(2,1,22)             122.5217         calculate D2E/DX2 analytically  !
 ! A3    A(3,1,22)             122.5217         calculate D2E/DX2 analytically  !
 ! A4    A(1,2,4)              106.3166         calculate D2E/DX2 analytically  !
 ! A5    A(1,3,5)              106.3166         calculate D2E/DX2 analytically  !
 ! A6    A(2,4,5)              102.0919         calculate D2E/DX2 analytically  !
 ! A7    A(2,4,6)              106.6193         calculate D2E/DX2 analytically  !
 ! A8    A(2,4,7)              108.7596         calculate D2E/DX2 analytically  !
 ! A9    A(5,4,6)              113.0547         calculate D2E/DX2 analytically  !
 ! A10   A(5,4,7)              114.9218         calculate D2E/DX2 analytically  !
 ! A11   A(6,4,7)              110.6362         calculate D2E/DX2 analytically  !
 ! A12   A(3,5,4)              102.092          calculate D2E/DX2 analytically  !
 ! A13   A(3,5,8)              106.6193         calculate D2E/DX2 analytically  !
 ! A14   A(3,5,9)              108.7596         calculate D2E/DX2 analytically  !
 ! A15   A(4,5,8)              113.0546         calculate D2E/DX2 analytically  !
 ! A16   A(4,5,9)              114.9219         calculate D2E/DX2 analytically  !
 ! A17   A(8,5,9)              110.6362         calculate D2E/DX2 analytically  !
 ! A18   A(4,6,10)             111.6124         calculate D2E/DX2 analytically  !
 ! A19   A(4,6,11)             108.7774         calculate D2E/DX2 analytically  !
 ! A20   A(4,6,12)             111.2911         calculate D2E/DX2 analytically  !
 ! A21   A(10,6,11)            108.4836         calculate D2E/DX2 analytically  !
 ! A22   A(10,6,12)            108.6063         calculate D2E/DX2 analytically  !
 ! A23   A(11,6,12)            107.9639         calculate D2E/DX2 analytically  !
 ! A24   A(4,7,13)             109.5994         calculate D2E/DX2 analytically  !
 ! A25   A(4,7,14)             110.6137         calculate D2E/DX2 analytically  !
 ! A26   A(4,7,15)             111.634          calculate D2E/DX2 analytically  !
 ! A27   A(13,7,14)            108.1234         calculate D2E/DX2 analytically  !
 ! A28   A(13,7,15)            107.9631         calculate D2E/DX2 analytically  !
 ! A29   A(14,7,15)            108.8044         calculate D2E/DX2 analytically  !
 ! A30   A(5,8,16)             111.6124         calculate D2E/DX2 analytically  !
 ! A31   A(5,8,17)             108.7774         calculate D2E/DX2 analytically  !
 ! A32   A(5,8,18)             111.2911         calculate D2E/DX2 analytically  !
 ! A33   A(16,8,17)            108.4836         calculate D2E/DX2 analytically  !
 ! A34   A(16,8,18)            108.6063         calculate D2E/DX2 analytically  !
 ! A35   A(17,8,18)            107.9639         calculate D2E/DX2 analytically  !
 ! A36   A(5,9,19)             111.634          calculate D2E/DX2 analytically  !
 ! A37   A(5,9,20)             109.5994         calculate D2E/DX2 analytically  !
 ! A38   A(5,9,21)             110.6137         calculate D2E/DX2 analytically  !
 ! A39   A(19,9,20)            107.9631         calculate D2E/DX2 analytically  !
 ! A40   A(19,9,21)            108.8044         calculate D2E/DX2 analytically  !
 ! A41   A(20,9,21)            108.1234         calculate D2E/DX2 analytically  !
 ! D1    D(3,1,2,4)              9.8179         calculate D2E/DX2 analytically  !
 ! D2    D(22,1,2,4)          -170.1828         calculate D2E/DX2 analytically  !
 ! D3    D(2,1,3,5)              9.8171         calculate D2E/DX2 analytically  !
 ! D4    D(22,1,3,5)          -170.1822         calculate D2E/DX2 analytically  !
 ! D5    D(1,2,4,5)            -23.1708         calculate D2E/DX2 analytically  !
 ! D6    D(1,2,4,6)             95.6386         calculate D2E/DX2 analytically  !
 ! D7    D(1,2,4,7)           -145.0334         calculate D2E/DX2 analytically  !
 ! D8    D(1,3,5,4)            -23.1704         calculate D2E/DX2 analytically  !
 ! D9    D(1,3,5,8)             95.639          calculate D2E/DX2 analytically  !
 ! D10   D(1,3,5,9)           -145.0331         calculate D2E/DX2 analytically  !
 ! D11   D(2,4,5,3)             28.1685         calculate D2E/DX2 analytically  !
 ! D12   D(2,4,5,8)            -85.9778         calculate D2E/DX2 analytically  !
 ! D13   D(2,4,5,9)            145.6983         calculate D2E/DX2 analytically  !
 ! D14   D(6,4,5,3)            -85.9778         calculate D2E/DX2 analytically  !
 ! D15   D(6,4,5,8)            159.8759         calculate D2E/DX2 analytically  !
 ! D16   D(6,4,5,9)             31.552          calculate D2E/DX2 analytically  !
 ! D17   D(7,4,5,3)            145.6982         calculate D2E/DX2 analytically  !
 ! D18   D(7,4,5,8)             31.5519         calculate D2E/DX2 analytically  !
 ! D19   D(7,4,5,9)            -96.772          calculate D2E/DX2 analytically  !
 ! D20   D(2,4,6,10)           175.7835         calculate D2E/DX2 analytically  !
 ! D21   D(2,4,6,11)            56.1221         calculate D2E/DX2 analytically  !
 ! D22   D(2,4,6,12)           -62.7013         calculate D2E/DX2 analytically  !
 ! D23   D(5,4,6,10)           -72.8322         calculate D2E/DX2 analytically  !
 ! D24   D(5,4,6,11)           167.5064         calculate D2E/DX2 analytically  !
 ! D25   D(5,4,6,12)            48.683          calculate D2E/DX2 analytically  !
 ! D26   D(7,4,6,10)            57.682          calculate D2E/DX2 analytically  !
 ! D27   D(7,4,6,11)           -61.9794         calculate D2E/DX2 analytically  !
 ! D28   D(7,4,6,12)           179.1972         calculate D2E/DX2 analytically  !
 ! D29   D(2,4,7,13)           -65.6106         calculate D2E/DX2 analytically  !
 ! D30   D(2,4,7,14)           175.2643         calculate D2E/DX2 analytically  !
 ! D31   D(2,4,7,15)            53.954          calculate D2E/DX2 analytically  !
 ! D32   D(5,4,7,13)          -179.299          calculate D2E/DX2 analytically  !
 ! D33   D(5,4,7,14)            61.5759         calculate D2E/DX2 analytically  !
 ! D34   D(5,4,7,15)           -59.7344         calculate D2E/DX2 analytically  !
 ! D35   D(6,4,7,13)            51.1764         calculate D2E/DX2 analytically  !
 ! D36   D(6,4,7,14)           -67.9488         calculate D2E/DX2 analytically  !
 ! D37   D(6,4,7,15)           170.741          calculate D2E/DX2 analytically  !
 ! D38   D(3,5,8,16)           175.7835         calculate D2E/DX2 analytically  !
 ! D39   D(3,5,8,17)            56.122          calculate D2E/DX2 analytically  !
 ! D40   D(3,5,8,18)           -62.7014         calculate D2E/DX2 analytically  !
 ! D41   D(4,5,8,16)           -72.8322         calculate D2E/DX2 analytically  !
 ! D42   D(4,5,8,17)           167.5064         calculate D2E/DX2 analytically  !
 ! D43   D(4,5,8,18)            48.6829         calculate D2E/DX2 analytically  !
 ! D44   D(9,5,8,16)            57.682          calculate D2E/DX2 analytically  !
 ! D45   D(9,5,8,17)           -61.9795         calculate D2E/DX2 analytically  !
 ! D46   D(9,5,8,18)           179.1971         calculate D2E/DX2 analytically  !
 ! D47   D(3,5,9,19)            53.9539         calculate D2E/DX2 analytically  !
 ! D48   D(3,5,9,20)           -65.6107         calculate D2E/DX2 analytically  !
 ! D49   D(3,5,9,21)           175.2641         calculate D2E/DX2 analytically  !
 ! D50   D(4,5,9,19)           -59.7346         calculate D2E/DX2 analytically  !
 ! D51   D(4,5,9,20)          -179.2992         calculate D2E/DX2 analytically  !
 ! D52   D(4,5,9,21)            61.5756         calculate D2E/DX2 analytically  !
 ! D53   D(8,5,9,19)           170.7409         calculate D2E/DX2 analytically  !
 ! D54   D(8,5,9,20)            51.1763         calculate D2E/DX2 analytically  !
 ! D55   D(8,5,9,21)           -67.9489         calculate D2E/DX2 analytically  !
 --------------------------------------------------------------------------------
 Trust Radius=3.00D-01 FncErr=1.00D-07 GrdErr=1.00D-07 EigMax=2.50D+02 EigMin=1.00D-04
 Number of steps in this run=      2 maximum allowed number of steps=      2.
 GradGradGradGradGradGradGradGradGradGradGradGradGradGradGradGradGradGrad

 Leave Link  103 at Thu Apr 25 01:56:00 2024, MaxMem= 10737418240 cpu:               0.3 elap:               0.0
 (Enter /lustre/home/acct-chenxiangyang/chenxiangyang-user1/software/g16/l202.exe)
                          Input orientation:                          
 ---------------------------------------------------------------------
 Center     Atomic      Atomic             Coordinates (Angstroms)
 Number     Number       Type             X           Y           Z
 ---------------------------------------------------------------------
      1          5           0       -0.079599   -0.062953   -0.000008
      2          8           0        0.608615   -0.790837    0.910667
      3          8           0       -0.767851   -0.790727   -0.910742
      4          6           0        0.560601   -2.163791    0.454187
      5          6           0       -0.719892   -2.163724   -0.454385
      6          6           0        1.845210   -2.408570   -0.325840
      7          6           0        0.486811   -3.076293    1.661323
      8          6           0       -2.004510   -2.408521    0.325621
      9          6           0       -0.646141   -3.076121   -1.661603
     10          1           0        1.928982   -3.455650   -0.649626
     11          1           0        2.702159   -2.174329    0.321304
     12          1           0        1.903199   -1.761237   -1.213005
     13          1           0        1.418646   -2.999168    2.239377
     14          1           0        0.364057   -4.123940    1.348078
     15          1           0       -0.345249   -2.805217    2.323013
     16          1           0       -2.088324   -3.455627    0.649313
     17          1           0       -2.861450   -2.174186   -0.321501
     18          1           0       -2.062471   -1.761265    1.212845
     19          1           0        0.185927   -2.805018   -2.323272
     20          1           0       -1.577976   -2.998908   -2.239648
     21          1           0       -0.523428   -4.123800   -1.348452
     22         53           0       -0.079562    2.066186    0.000093
 ---------------------------------------------------------------------
                    Distance matrix (angstroms):
                    1          2          3          4          5
     1  B    0.000000
     2  O    1.353803   0.000000
     3  O    1.353803   2.283022   0.000000
     4  C    2.242693   1.447647   2.348004   0.000000
     5  C    2.242693   2.348003   1.447647   1.570085   0.000000
     6  C    3.051717   2.382263   3.128516   1.522688   2.579966
     7  C    3.487271   2.408657   3.662445   1.515019   2.600988
     8  C    3.051722   3.128514   2.382263   2.579965   1.522688
     9  C    3.487270   3.662446   2.408657   2.600988   1.515019
    10  H    3.995847   3.358439   3.800382   2.181689   2.953596
    11  H    3.507040   2.577658   3.933606   2.145702   3.508880
    12  H    2.878719   2.669758   2.857929   2.178107   2.760092
    13  H    3.985090   2.701545   4.425069   2.149651   3.539445
    14  H    4.301835   3.370565   4.182558   2.163297   2.875112
    15  H    3.603749   2.638618   3.833267   2.173592   2.875033
    16  H    3.995852   3.800380   3.358439   2.953594   2.181689
    17  H    3.507044   3.933604   2.577658   3.508879   2.145702
    18  H    2.878726   2.857927   2.669759   2.760091   2.178107
    19  H    3.603746   3.833269   2.638617   2.875035   2.173593
    20  H    3.985092   4.425069   2.701547   3.539446   2.149652
    21  H    4.301833   4.182557   3.370565   2.875111   2.163297
    22  I    2.129138   3.076575   3.076575   4.302176   4.302175
                    6          7          8          9         10
     6  C    0.000000
     7  C    2.497983   0.000000
     8  C    3.904452   2.904599   0.000000
     9  C    2.904603   3.510758   2.497982   0.000000
    10  H    1.099196   2.750319   4.185684   2.792741   0.000000
    11  H    1.099102   2.741707   4.712494   3.994529   1.783898
    12  H    1.099757   3.463710   4.249299   2.903325   1.785804
    13  H    2.666665   1.099278   3.966022   4.414399   2.969033
    14  H    2.817500   1.100343   3.098095   3.343143   2.624199
    15  H    3.460038   1.097106   2.626802   4.005133   3.798918
    16  H    4.185683   2.792737   1.099196   2.750318   4.222084
    17  H    4.712495   3.994526   1.099102   2.741706   4.969714
    18  H    4.249298   2.903321   1.099757   3.463710   4.719263
    19  H    2.626809   4.005136   3.460038   1.097106   2.502529
    20  H    3.966026   4.414398   2.666664   1.099278   3.877568
    21  H    3.098095   3.343142   2.817501   1.100343   2.636114
    22  I    4.882051   5.433742   4.882048   5.433743   5.911603
                   11         12         13         14         15
    11  H    0.000000
    12  H    1.778507   0.000000
    13  H    2.450871   3.699488   0.000000
    14  H    3.212782   3.809261   1.780923   0.000000
    15  H    3.700210   4.318430   1.776497   1.786798   0.000000
    16  H    4.969713   4.719263   3.877564   2.636113   2.502522
    17  H    5.600620   4.864894   5.055484   4.122248   3.704446
    18  H    4.864891   4.648795   3.834626   3.389478   2.295901
    19  H    3.704453   2.295908   4.730228   3.905137   4.676549
    20  H    5.055488   3.834632   5.389008   4.231899   4.730223
    21  H    4.122249   3.389479   4.231899   2.838820   3.905133
    22  I    5.081645   4.477959   5.737319   6.350710   5.403435
                   16         17         18         19         20
    16  H    0.000000
    17  H    1.783898   0.000000
    18  H    1.785804   1.778507   0.000000
    19  H    3.798917   3.700209   4.318430   0.000000
    20  H    2.969031   2.450870   3.699487   1.776497   0.000000
    21  H    2.624199   3.212783   3.809261   1.786798   1.780923
    22  I    5.911601   5.081641   4.477955   5.403437   5.737321
                   21         22
    21  H    0.000000
    22  I    6.350710   0.000000
 Stoichiometry    C6H12BIO2
 Framework group  C1[X(C6H12BIO2)]
 Deg. of freedom    60
 Full point group                 C1      NOp   1
 RotChk:  IX=0 Diff= 2.10D-15
 Largest Abelian subgroup         C1      NOp   1
 Largest concise Abelian subgroup C1      NOp   1
                         Standard orientation:                         
 ---------------------------------------------------------------------
 Center     Atomic      Atomic             Coordinates (Angstroms)
 Number     Number       Type             X           Y           Z
 ---------------------------------------------------------------------
      1          5           0        0.181964   -0.000002   -0.000006
      2          8           0       -0.545865   -1.062817    0.416493
      3          8           0       -0.545865    1.062817   -0.416495
      4          6           0       -1.918841   -0.783284    0.052513
      5          6           0       -1.918840    0.783284   -0.052514
      6          6           0       -2.163630   -1.470527   -1.284032
      7          6           0       -2.831289   -1.351542    1.120129
      8          6           0       -2.163627    1.470525    1.284033
      9          6           0       -2.831290    1.351544   -1.120127
     10          1           0       -3.210723   -1.372696   -1.603809
     11          1           0       -1.929342   -2.539358   -1.180423
     12          1           0       -1.516335   -1.056100   -2.070623
     13          1           0       -2.754120   -2.448094    1.125695
     14          1           0       -3.878953   -1.083171    0.917315
     15          1           0       -2.560199   -0.988199    2.119195
     16          1           0       -3.210720    1.372695    1.603811
     17          1           0       -1.929338    2.539356    1.180425
     18          1           0       -1.516332    1.056096    2.070623
     19          1           0       -2.560201    0.988205   -2.119194
     20          1           0       -2.754122    2.448096   -1.125690
     21          1           0       -3.878953    1.083172   -0.917313
     22         53           0        2.311103    0.000000    0.000000
 ---------------------------------------------------------------------
 Rotational constants (GHZ):           1.7591168           0.4034961           0.3801090
 Leave Link  202 at Thu Apr 25 01:56:00 2024, MaxMem= 10737418240 cpu:               0.2 elap:               0.0
 (Enter /lustre/home/acct-chenxiangyang/chenxiangyang-user1/software/g16/l301.exe)
 Standard basis: def2SVP (5D, 7F)
 Ernie: Thresh=  0.10000D-02 Tol=  0.10000D-05 Strict=F.
 There are   223 symmetry adapted cartesian basis functions of A   symmetry.
 There are   212 symmetry adapted basis functions of A   symmetry.
   212 basis functions,   376 primitive gaussians,   223 cartesian basis functions
    47 alpha electrons       47 beta electrons
       nuclear repulsion energy       717.7581814005 Hartrees.
 IExCor= 1009 DFT=T Ex+Corr=PBE1PBE ExCW=0 ScaHFX=  0.250000
 ScaDFX=  0.750000  0.750000  1.000000  1.000000 ScalE2=  1.000000  1.000000
 IRadAn=      5 IRanWt=     -1 IRanGd=            0 ICorTp=0 IEmpDi=141
 NAtoms=   22 NActive=   22 NUniq=   22 SFac= 1.00D+00 NAtFMM=   60 NAOKFM=F Big=F
 Integral buffers will be    131072 words long.
 Raffenetti 2 integral format.
 Two-electron integral symmetry is turned on.
 R6Disp:  Grimme-D3(BJ) Dispersion energy=       -0.0218998701 Hartrees.
 Nuclear repulsion after empirical dispersion term =      717.7362815304 Hartrees.
 Leave Link  301 at Thu Apr 25 01:56:00 2024, MaxMem= 10737418240 cpu:               2.1 elap:               0.1
 (Enter /lustre/home/acct-chenxiangyang/chenxiangyang-user1/software/g16/l302.exe)
 NPDir=0 NMtPBC=     1 NCelOv=     1 NCel=       1 NClECP=     1 NCelD=      1
         NCelK=      1 NCelE2=     1 NClLst=     1 CellRange=     0.0.
 One-electron integrals computed using PRISM.
 One-electron integral symmetry used in STVInt
   1 Symmetry operations used in ECPInt.
 ECPInt:  NShTT=    5050 NPrTT=   18521 LenC2=    4998 LenP2D=   14472.
 LDataN:  DoStor=T MaxTD1= 6 Len=  172
 NBasis=   212 RedAO= T EigKep=  7.47D-04  NBF=   212
 NBsUse=   212 1.00D-06 EigRej= -1.00D+00 NBFU=   212
 Precomputing XC quadrature grid using
 IXCGrd= 4 IRadAn=           5 IRanWt=          -1 IRanGd=           0 AccXCQ= 0.00D+00.
 Defaulting to unpruned grid for atomic number  53.
 Generated NRdTot=       0 NPtTot=           0 NUsed=           0 NTot=          32
 NSgBfM=   223   223   223   223   223 MxSgAt=    22 MxSgA2=    22.
 Leave Link  302 at Thu Apr 25 01:56:00 2024, MaxMem= 10737418240 cpu:              10.2 elap:               0.3
 (Enter /lustre/home/acct-chenxiangyang/chenxiangyang-user1/software/g16/l303.exe)
 DipDrv:  MaxL=1.
 Leave Link  303 at Thu Apr 25 01:56:00 2024, MaxMem= 10737418240 cpu:               1.1 elap:               0.0
 (Enter /lustre/home/acct-chenxiangyang/chenxiangyang-user1/software/g16/l401.exe)
 Initial guess from the checkpoint file:  "I-Bpin-of1.chk"
 B after Tr=     0.000000    0.000000   -0.000000
         Rot=    1.000000    0.000000    0.000000    0.000000 Ang=   0.00 deg.
 Guess basis will be translated and rotated to current coordinates.
 JPrj=2 DoOrth=T DoCkMO=T.
 Leave Link  401 at Thu Apr 25 01:56:00 2024, MaxMem= 10737418240 cpu:               4.3 elap:               0.1
 (Enter /lustre/home/acct-chenxiangyang/chenxiangyang-user1/software/g16/l502.exe)
 Integral symmetry usage will be decided dynamically.
 Closed shell SCF:
 Using DIIS extrapolation, IDIIS=  1040.
 NGot= 10737418240 LenX= 10737307358 LenY= 10737257188
 Requested convergence on RMS density matrix=1.00D-08 within 128 cycles.
 Requested convergence on MAX density matrix=1.00D-06.
 Requested convergence on             energy=1.00D-06.
 No special actions if energy rises.
 Fock matrices will be formed incrementally for  20 cycles.

 Cycle   1  Pass 1  IDiag  1:
 FoFJK:  IHMeth= 1 ICntrl=       0 DoSepK=F KAlg= 0 I1Cent=           0 FoldK=F
 IRaf= 970000000 NMat=       1 IRICut=       1 DoRegI=T DoRafI=F ISym2E= 0 IDoP0=0 IntGTp=1.
 FoFCou: FMM=F IPFlag=           0 FMFlag=      100000 FMFlg1=           0
         NFxFlg=           0 DoJE=F BraDBF=F KetDBF=F FulRan=T
         wScrn=  0.000000 ICntrl=         0 IOpCl=  0 I1Cent=           0 NGrid=           0
         NMat0=    1 NMatS0=      1 NMatT0=    0 NMatD0=    1 NMtDS0=    0 NMtDT0=    0
 Symmetry not used in FoFCou.
 Defaulting to unpruned grid for atomic number  53.
 Defaulting to unpruned grid for atomic number  53.
 Defaulting to unpruned grid for atomic number  53.
 Defaulting to unpruned grid for atomic number  53.
 Defaulting to unpruned grid for atomic number  53.
 Defaulting to unpruned grid for atomic number  53.
 Defaulting to unpruned grid for atomic number  53.
 Defaulting to unpruned grid for atomic number  53.
 Defaulting to unpruned grid for atomic number  53.
 Defaulting to unpruned grid for atomic number  53.
 Defaulting to unpruned grid for atomic number  53.
 Defaulting to unpruned grid for atomic number  53.
 Defaulting to unpruned grid for atomic number  53.
 Defaulting to unpruned grid for atomic number  53.
 Defaulting to unpruned grid for atomic number  53.
 Defaulting to unpruned grid for atomic number  53.
 Defaulting to unpruned grid for atomic number  53.
 Defaulting to unpruned grid for atomic number  53.
 Defaulting to unpruned grid for atomic number  53.
 Defaulting to unpruned grid for atomic number  53.
 Defaulting to unpruned grid for atomic number  53.
 Defaulting to unpruned grid for atomic number  53.
 Defaulting to unpruned grid for atomic number  53.
 Defaulting to unpruned grid for atomic number  53.
 Defaulting to unpruned grid for atomic number  53.
 Defaulting to unpruned grid for atomic number  53.
 Defaulting to unpruned grid for atomic number  53.
 Defaulting to unpruned grid for atomic number  53.
 Defaulting to unpruned grid for atomic number  53.
 Defaulting to unpruned grid for atomic number  53.
 Defaulting to unpruned grid for atomic number  53.
 Defaulting to unpruned grid for atomic number  53.
 Defaulting to unpruned grid for atomic number  53.
 Defaulting to unpruned grid for atomic number  53.
 Defaulting to unpruned grid for atomic number  53.
 Defaulting to unpruned grid for atomic number  53.
 Defaulting to unpruned grid for atomic number  53.
 Defaulting to unpruned grid for atomic number  53.
 Defaulting to unpruned grid for atomic number  53.
 Defaulting to unpruned grid for atomic number  53.
 E= -708.262699339119    
 DIIS: error= 1.08D-08 at cycle   1 NSaved=   1.
 NSaved= 1 IEnMin= 1 EnMin= -708.262699339119     IErMin= 1 ErrMin= 1.08D-08
 ErrMax= 1.08D-08  0.00D+00 EMaxC= 1.00D-01 BMatC= 6.87D-14 BMatP= 6.87D-14
 IDIUse=1 WtCom= 1.00D+00 WtEn= 0.00D+00
 Coeff-Com:  0.100D+01
 Coeff:      0.100D+01
 Gap=     0.294 Goal=   None    Shift=    0.000
 RMSDP=4.18D-09 MaxDP=9.10D-08              OVMax= 1.65D-07

 SCF Done:  E(RPBE1PBE) =  -708.262699339     A.U. after    1 cycles
            NFock=  1  Conv=0.42D-08     -V/T= 2.3618
 KE= 5.200830503308D+02 PE=-3.022344459588D+03 EE= 1.076262428388D+03
 Leave Link  502 at Thu Apr 25 01:56:01 2024, MaxMem= 10737418240 cpu:              22.7 elap:               0.6
 (Enter /lustre/home/acct-chenxiangyang/chenxiangyang-user1/software/g16/l801.exe)
 DoSCS=F DFT=T ScalE2(SS,OS)=  1.000000  1.000000
 Range of M.O.s used for correlation:     1   212
 NBasis=   212 NAE=    47 NBE=    47 NFC=     0 NFV=     0
 NROrb=    212 NOA=    47 NOB=    47 NVA=   165 NVB=   165

 **** Warning!!: The largest alpha MO coefficient is  0.13660014D+02

 Leave Link  801 at Thu Apr 25 01:56:01 2024, MaxMem= 10737418240 cpu:               0.7 elap:               0.0
 (Enter /lustre/home/acct-chenxiangyang/chenxiangyang-user1/software/g16/l1101.exe)
 Using compressed storage, NAtomX=    22.
 Will process     23 centers per pass.
   1 Symmetry operations used in ECPInt.
 ECPInt:  NShTT=    5050 NPrTT=   18521 LenC2=    4998 LenP2D=   14472.
 LDataN:  DoStor=T MaxTD1= 7 Len=  274
 R6Disp: Adding Grimme-D3(BJ) dispersion energy 1st derivatives to the gradient.
 Leave Link 1101 at Thu Apr 25 01:56:02 2024, MaxMem= 10737418240 cpu:              17.0 elap:               0.4
 (Enter /lustre/home/acct-chenxiangyang/chenxiangyang-user1/software/g16/l1102.exe)
 Symmetrizing basis deriv contribution to polar:
 IMax=3 JMax=2 DiffMx= 0.00D+00
 Leave Link 1102 at Thu Apr 25 01:56:02 2024, MaxMem= 10737418240 cpu:               1.0 elap:               0.0
 (Enter /lustre/home/acct-chenxiangyang/chenxiangyang-user1/software/g16/l1110.exe)
 Forming Gx(P) for the SCF density, NAtomX=    22.
 Integral derivatives from FoFJK, PRISM(SPDF).
 Do as many integral derivatives as possible in FoFJK.
 G2DrvN: MDV=   10737416520.
 G2DrvN: will do    23 centers at a time, making    1 passes.
 Calling FoFCou, ICntrl=  3107 FMM=F I1Cent=   0 AccDes= 0.00D+00.
 FoFJK:  IHMeth= 1 ICntrl=    3107 DoSepK=F KAlg= 0 I1Cent=           0 FoldK=F
 IRaf=         0 NMat=       1 IRICut=       1 DoRegI=T DoRafI=F ISym2E= 0 IDoP0=0 IntGTp=1.
 FoFCou: FMM=F IPFlag=           0 FMFlag=      100000 FMFlg1=           0
         NFxFlg=           0 DoJE=F BraDBF=F KetDBF=F FulRan=T
         wScrn=  0.000000 ICntrl=      3107 IOpCl=  0 I1Cent=           0 NGrid=           0
         NMat0=    1 NMatS0=      1 NMatT0=    0 NMatD0=    1 NMtDS0=    0 NMtDT0=    0
 Symmetry not used in FoFCou.
 Defaulting to unpruned grid for atomic number  53.
 Defaulting to unpruned grid for atomic number  53.
 Defaulting to unpruned grid for atomic number  53.
 Defaulting to unpruned grid for atomic number  53.
 Defaulting to unpruned grid for atomic number  53.
 Defaulting to unpruned grid for atomic number  53.
 Defaulting to unpruned grid for atomic number  53.
 Defaulting to unpruned grid for atomic number  53.
 Defaulting to unpruned grid for atomic number  53.
 Defaulting to unpruned grid for atomic number  53.
 Defaulting to unpruned grid for atomic number  53.
 Defaulting to unpruned grid for atomic number  53.
 Defaulting to unpruned grid for atomic number  53.
 Defaulting to unpruned grid for atomic number  53.
 Defaulting to unpruned grid for atomic number  53.
 Defaulting to unpruned grid for atomic number  53.
 Defaulting to unpruned grid for atomic number  53.
 Defaulting to unpruned grid for atomic number  53.
 Defaulting to unpruned grid for atomic number  53.
 Defaulting to unpruned grid for atomic number  53.
 Defaulting to unpruned grid for atomic number  53.
 Defaulting to unpruned grid for atomic number  53.
 Defaulting to unpruned grid for atomic number  53.
 Defaulting to unpruned grid for atomic number  53.
 Defaulting to unpruned grid for atomic number  53.
 Defaulting to unpruned grid for atomic number  53.
 Defaulting to unpruned grid for atomic number  53.
 Defaulting to unpruned grid for atomic number  53.
 Defaulting to unpruned grid for atomic number  53.
 Defaulting to unpruned grid for atomic number  53.
 Defaulting to unpruned grid for atomic number  53.
 Defaulting to unpruned grid for atomic number  53.
 Defaulting to unpruned grid for atomic number  53.
 Defaulting to unpruned grid for atomic number  53.
 Defaulting to unpruned grid for atomic number  53.
 Defaulting to unpruned grid for atomic number  53.
 Defaulting to unpruned grid for atomic number  53.
 Defaulting to unpruned grid for atomic number  53.
 Defaulting to unpruned grid for atomic number  53.
 Defaulting to unpruned grid for atomic number  53.
 End of G2Drv F.D. properties file   721 does not exist.
 End of G2Drv F.D. properties file   722 does not exist.
 End of G2Drv F.D. properties file   788 does not exist.
 Leave Link 1110 at Thu Apr 25 01:56:10 2024, MaxMem= 10737418240 cpu:             332.4 elap:               8.4
 (Enter /lustre/home/acct-chenxiangyang/chenxiangyang-user1/software/g16/l1002.exe)
 Minotr:  Closed shell wavefunction.
          IDoAtm=1111111111111111111111
          Direct CPHF calculation.
          Differentiating once with respect to electric field.
                with respect to dipole field.
          Differentiating once with respect to nuclear coordinates.
          Requested convergence is 1.0D-08 RMS, and 1.0D-07 maximum.
          Secondary convergence is 1.0D-12 RMS, and 1.0D-12 maximum.
          NewPWx=T KeepS1=F KeepF1=F KeepIn=T MapXYZ=F SortEE=F KeepMc=T.
 Defaulting to unpruned grid for atomic number  53.
         6571 words used for storage of precomputed grid.
 Keep R1 ints in memory in canonical form, NReq=296790024.
 FoFCou: FMM=F IPFlag=           0 FMFlag=           0 FMFlg1=           0
         NFxFlg=           0 DoJE=F BraDBF=F KetDBF=F FulRan=T
         wScrn=  0.000000 ICntrl=       600 IOpCl=  0 I1Cent=           0 NGrid=           0
         NMat0=    1 NMatS0=  22578 NMatT0=    0 NMatD0=    1 NMtDS0=    0 NMtDT0=    0
 Symmetry not used in FoFCou.
 Two-electron integral symmetry not used.
          MDV=   10737418240 using IRadAn=       1.
          Solving linear equations simultaneously, MaxMat=       0.
 Defaulting to unpruned grid for atomic number  53.
 Defaulting to unpruned grid for atomic number  53.
 Defaulting to unpruned grid for atomic number  53.
 Defaulting to unpruned grid for atomic number  53.
 Defaulting to unpruned grid for atomic number  53.
 Defaulting to unpruned grid for atomic number  53.
 Defaulting to unpruned grid for atomic number  53.
 Defaulting to unpruned grid for atomic number  53.
 Defaulting to unpruned grid for atomic number  53.
 Defaulting to unpruned grid for atomic number  53.
 Defaulting to unpruned grid for atomic number  53.
 Defaulting to unpruned grid for atomic number  53.
 Defaulting to unpruned grid for atomic number  53.
 Defaulting to unpruned grid for atomic number  53.
 Defaulting to unpruned grid for atomic number  53.
 Defaulting to unpruned grid for atomic number  53.
 Defaulting to unpruned grid for atomic number  53.
 Defaulting to unpruned grid for atomic number  53.
 Defaulting to unpruned grid for atomic number  53.
 Defaulting to unpruned grid for atomic number  53.
 Defaulting to unpruned grid for atomic number  53.
 Defaulting to unpruned grid for atomic number  53.
 Defaulting to unpruned grid for atomic number  53.
 Defaulting to unpruned grid for atomic number  53.
 Defaulting to unpruned grid for atomic number  53.
 Defaulting to unpruned grid for atomic number  53.
 Defaulting to unpruned grid for atomic number  53.
 Defaulting to unpruned grid for atomic number  53.
 Defaulting to unpruned grid for atomic number  53.
 Defaulting to unpruned grid for atomic number  53.
 Defaulting to unpruned grid for atomic number  53.
 Defaulting to unpruned grid for atomic number  53.
 Defaulting to unpruned grid for atomic number  53.
 Defaulting to unpruned grid for atomic number  53.
 Defaulting to unpruned grid for atomic number  53.
 Defaulting to unpruned grid for atomic number  53.
 Defaulting to unpruned grid for atomic number  53.
 Defaulting to unpruned grid for atomic number  53.
 Defaulting to unpruned grid for atomic number  53.
 Defaulting to unpruned grid for atomic number  53.
          There are    69 degrees of freedom in the 1st order CPHF.  IDoFFX=6 NUNeed=     3.
     66 vectors produced by pass  0 Test12= 1.12D-14 1.45D-09 XBig12= 9.05D+01 4.32D+00.
 AX will form    66 AO Fock derivatives at one time.
     66 vectors produced by pass  1 Test12= 1.12D-14 1.45D-09 XBig12= 9.74D+00 9.77D-01.
     66 vectors produced by pass  2 Test12= 1.12D-14 1.45D-09 XBig12= 1.59D-01 6.50D-02.
     66 vectors produced by pass  3 Test12= 1.12D-14 1.45D-09 XBig12= 1.32D-03 6.29D-03.
     66 vectors produced by pass  4 Test12= 1.12D-14 1.45D-09 XBig12= 3.30D-06 2.93D-04.
     36 vectors produced by pass  5 Test12= 1.12D-14 1.45D-09 XBig12= 4.78D-09 1.10D-05.
      9 vectors produced by pass  6 Test12= 1.12D-14 1.45D-09 XBig12= 6.26D-12 3.85D-07.
      3 vectors produced by pass  7 Test12= 1.12D-14 1.45D-09 XBig12= 7.11D-15 1.35D-08.
 InvSVY:  IOpt=1 It=  1 EMax= 5.33D-15
 Solved reduced A of dimension   378 with    69 vectors.
 FullF1:  Do perturbations      1 to       3.
 Isotropic polarizability for W=    0.000000      104.05 Bohr**3.
 End of Minotr F.D. properties file   721 does not exist.
 End of Minotr F.D. properties file   722 does not exist.
 End of Minotr F.D. properties file   788 does not exist.
 Leave Link 1002 at Thu Apr 25 01:56:22 2024, MaxMem= 10737418240 cpu:             442.6 elap:              11.2
 (Enter /lustre/home/acct-chenxiangyang/chenxiangyang-user1/software/g16/l601.exe)
 Copying SCF densities to generalized density rwf, IOpCl= 0 IROHF=0.

 **********************************************************************

            Population analysis using the SCF density.

 **********************************************************************

 Orbital symmetries:
       Occupied  (A) (A) (A) (A) (A) (A) (A) (A) (A) (A) (A) (A)
                 (A) (A) (A) (A) (A) (A) (A) (A) (A) (A) (A) (A)
                 (A) (A) (A) (A) (A) (A) (A) (A) (A) (A) (A) (A)
                 (A) (A) (A) (A) (A) (A) (A) (A) (A) (A) (A)
       Virtual   (A) (A) (A) (A) (A) (A) (A) (A) (A) (A) (A) (A)
                 (A) (A) (A) (A) (A) (A) (A) (A) (A) (A) (A) (A)
                 (A) (A) (A) (A) (A) (A) (A) (A) (A) (A) (A) (A)
                 (A) (A) (A) (A) (A) (A) (A) (A) (A) (A) (A) (A)
                 (A) (A) (A) (A) (A) (A) (A) (A) (A) (A) (A) (A)
                 (A) (A) (A) (A) (A) (A) (A) (A) (A) (A) (A) (A)
                 (A) (A) (A) (A) (A) (A) (A) (A) (A) (A) (A) (A)
                 (A) (A) (A) (A) (A) (A) (A) (A) (A) (A) (A) (A)
                 (A) (A) (A) (A) (A) (A) (A) (A) (A) (A) (A) (A)
                 (A) (A) (A) (A) (A) (A) (A) (A) (A) (A) (A) (A)
                 (A) (A) (A) (A) (A) (A) (A) (A) (A) (A) (A) (A)
                 (A) (A) (A) (A) (A) (A) (A) (A) (A) (A) (A) (A)
                 (A) (A) (A) (A) (A) (A) (A) (A) (A) (A) (A) (A)
                 (A) (A) (A) (A) (A) (A) (A) (A) (A)
 The electronic state is 1-A.
 Alpha  occ. eigenvalues --  -19.23227 -19.23219 -10.31149 -10.31136 -10.24114
 Alpha  occ. eigenvalues --  -10.24113 -10.23916 -10.23913  -6.88161  -6.86047
 Alpha  occ. eigenvalues --   -4.89627  -4.88656  -4.88504  -1.92390  -1.92066
 Alpha  occ. eigenvalues --   -1.91938  -1.91091  -1.91087  -1.10667  -1.03245
 Alpha  occ. eigenvalues --   -0.84208  -0.78392  -0.73589  -0.70997  -0.70546
 Alpha  occ. eigenvalues --   -0.64481  -0.59029  -0.57632  -0.50658  -0.50134
 Alpha  occ. eigenvalues --   -0.47989  -0.46977  -0.43074  -0.42880  -0.42567
 Alpha  occ. eigenvalues --   -0.42558  -0.40440  -0.39406  -0.39243  -0.37861
 Alpha  occ. eigenvalues --   -0.37113  -0.36788  -0.35425  -0.33663  -0.30298
 Alpha  occ. eigenvalues --   -0.27099  -0.26529
 Alpha virt. eigenvalues --    0.02920   0.03653   0.05230   0.08951   0.09538
 Alpha virt. eigenvalues --    0.10108   0.10787   0.11699   0.13104   0.13359
 Alpha virt. eigenvalues --    0.14412   0.15259   0.15791   0.16404   0.18149
 Alpha virt. eigenvalues --    0.18590   0.20650   0.21067   0.22423   0.22746
 Alpha virt. eigenvalues --    0.24707   0.27552   0.29319   0.31322   0.34069
 Alpha virt. eigenvalues --    0.39494   0.40658   0.40827   0.42009   0.42433
 Alpha virt. eigenvalues --    0.43648   0.44761   0.44772   0.46130   0.46901
 Alpha virt. eigenvalues --    0.49222   0.51200   0.51860   0.53032   0.54962
 Alpha virt. eigenvalues --    0.56405   0.56448   0.59581   0.60394   0.60460
 Alpha virt. eigenvalues --    0.61282   0.63894   0.63966   0.65027   0.65339
 Alpha virt. eigenvalues --    0.66972   0.68093   0.68371   0.69478   0.70220
 Alpha virt. eigenvalues --    0.70508   0.70836   0.72304   0.72492   0.73150
 Alpha virt. eigenvalues --    0.73653   0.74267   0.75675   0.77129   0.82651
 Alpha virt. eigenvalues --    0.86021   0.93999   0.96611   0.97251   0.98815
 Alpha virt. eigenvalues --    1.01954   1.04641   1.07351   1.10732   1.12677
 Alpha virt. eigenvalues --    1.13734   1.16355   1.22975   1.24484   1.30477
 Alpha virt. eigenvalues --    1.31383   1.32093   1.36206   1.37990   1.41939
 Alpha virt. eigenvalues --    1.45614   1.51094   1.51518   1.52765   1.52798
 Alpha virt. eigenvalues --    1.54104   1.55075   1.55372   1.61199   1.65156
 Alpha virt. eigenvalues --    1.67184   1.70815   1.73224   1.75539   1.75889
 Alpha virt. eigenvalues --    1.77232   1.77466   1.79252   1.79388   1.82313
 Alpha virt. eigenvalues --    1.82562   1.83780   1.85929   1.87029   1.87388
 Alpha virt. eigenvalues --    1.88595   1.89163   1.93104   1.94364   1.96828
 Alpha virt. eigenvalues --    1.98143   1.99908   2.03681   2.07610   2.08582
 Alpha virt. eigenvalues --    2.13061   2.14059   2.16852   2.19960   2.20243
 Alpha virt. eigenvalues --    2.27184   2.29898   2.39098   2.40162   2.42786
 Alpha virt. eigenvalues --    2.43073   2.46151   2.49123   2.53222   2.53647
 Alpha virt. eigenvalues --    2.57223   2.59203   2.64340   2.71475   2.74039
 Alpha virt. eigenvalues --    2.79584   2.79788   2.82774   2.87060   2.90988
 Alpha virt. eigenvalues --    2.92386   2.92928   2.93716   2.94609   2.95290
 Alpha virt. eigenvalues --    2.96865   2.97297   3.03854   3.05916   3.10927
 Alpha virt. eigenvalues --    3.12015   3.21958   3.24613   3.37457   3.47554
 Alpha virt. eigenvalues --    3.56224  18.64281  18.65252  18.97824  56.08339
          Condensed to atoms (all electrons):
               1          2          3          4          5          6
     1  B    3.621246   0.500527   0.500527  -0.101570  -0.101569   0.015958
     2  O    0.500527   7.713126  -0.032644   0.232854  -0.059664  -0.052374
     3  O    0.500527  -0.032644   7.713126  -0.059664   0.232855  -0.002308
     4  C   -0.101570   0.232854  -0.059664   5.304621   0.200753   0.387412
     5  C   -0.101569  -0.059664   0.232855   0.200753   5.304620  -0.081027
     6  C    0.015958  -0.052374  -0.002308   0.387412  -0.081027   4.600090
     7  C    0.002938  -0.049522   0.004478   0.395422  -0.065536  -0.062179
     8  C    0.015958  -0.002308  -0.052374  -0.081027   0.387412   0.011055
     9  C    0.002938   0.004478  -0.049522  -0.065536   0.395422   0.009902
    10  H   -0.001373   0.004848  -0.000005  -0.006478  -0.011802   0.370689
    11  H   -0.002572   0.002132  -0.000175  -0.014358   0.011201   0.381447
    12  H    0.009343  -0.005137   0.002641  -0.006035  -0.010565   0.387339
    13  H   -0.001313  -0.000028  -0.000148  -0.016720   0.011008  -0.008514
    14  H    0.001080   0.004325   0.000027  -0.020069  -0.002505  -0.002381
    15  H    0.000797  -0.000457   0.000035   0.011876  -0.023712   0.007921
    16  H   -0.001373  -0.000005   0.004848  -0.011802  -0.006477  -0.000262
    17  H   -0.002572  -0.000175   0.002132   0.011201  -0.014358  -0.000447
    18  H    0.009342   0.002641  -0.005137  -0.010565  -0.006035   0.000313
    19  H    0.000797   0.000035  -0.000457  -0.023712   0.011876   0.014713
    20  H   -0.001313  -0.000148  -0.000028   0.011008  -0.016720  -0.000379
    21  H    0.001080   0.000027   0.004325  -0.002505  -0.020069  -0.002478
    22  I    0.360170  -0.034260  -0.034260   0.002657   0.002657   0.000053
               7          8          9         10         11         12
     1  B    0.002938   0.015958   0.002938  -0.001373  -0.002572   0.009343
     2  O   -0.049522  -0.002308   0.004478   0.004848   0.002132  -0.005137
     3  O    0.004478  -0.052374  -0.049522  -0.000005  -0.000175   0.002641
     4  C    0.395422  -0.081027  -0.065536  -0.006478  -0.014358  -0.006035
     5  C   -0.065536   0.387412   0.395422  -0.011802   0.011201  -0.010565
     6  C   -0.062179   0.011055   0.009902   0.370689   0.381447   0.387339
     7  C    4.594701   0.009902  -0.002458  -0.001803  -0.010702   0.008335
     8  C    0.009902   4.600090  -0.062179  -0.000262  -0.000447   0.000313
     9  C   -0.002458  -0.062179   4.594702   0.008444   0.000218  -0.004627
    10  H   -0.001803  -0.000262   0.008444   0.635555  -0.017383  -0.023528
    11  H   -0.010702  -0.000447   0.000218  -0.017383   0.606821  -0.019639
    12  H    0.008335   0.000313  -0.004627  -0.023528  -0.019639   0.606457
    13  H    0.384521  -0.000379  -0.000415  -0.000465   0.005628  -0.000009
    14  H    0.381322  -0.002478   0.000561   0.001890  -0.000309  -0.000119
    15  H    0.366477   0.014713   0.000198  -0.000120  -0.000000  -0.000414
    16  H    0.008444   0.370689  -0.001803   0.000009   0.000009  -0.000012
    17  H    0.000218   0.381447  -0.010702   0.000009   0.000015  -0.000026
    18  H   -0.004627   0.387339   0.008335  -0.000012  -0.000026   0.000011
    19  H    0.000198   0.007921   0.366477  -0.001511  -0.000144   0.000832
    20  H   -0.000415  -0.008514   0.384521   0.000113  -0.000001  -0.000104
    21  H    0.000561  -0.002381   0.381322  -0.000236  -0.000054   0.000301
    22  I   -0.000091   0.000053  -0.000091  -0.000002  -0.000137   0.000175
              13         14         15         16         17         18
     1  B   -0.001313   0.001080   0.000797  -0.001373  -0.002572   0.009342
     2  O   -0.000028   0.004325  -0.000457  -0.000005  -0.000175   0.002641
     3  O   -0.000148   0.000027   0.000035   0.004848   0.002132  -0.005137
     4  C   -0.016720  -0.020069   0.011876  -0.011802   0.011201  -0.010565
     5  C    0.011008  -0.002505  -0.023712  -0.006477  -0.014358  -0.006035
     6  C   -0.008514  -0.002381   0.007921  -0.000262  -0.000447   0.000313
     7  C    0.384521   0.381322   0.366477   0.008444   0.000218  -0.004627
     8  C   -0.000379  -0.002478   0.014713   0.370689   0.381447   0.387339
     9  C   -0.000415   0.000561   0.000198  -0.001803  -0.010702   0.008335
    10  H   -0.000465   0.001890  -0.000120   0.000009   0.000009  -0.000012
    11  H    0.005628  -0.000309  -0.000000   0.000009   0.000015  -0.000026
    12  H   -0.000009  -0.000119  -0.000414  -0.000012  -0.000026   0.000011
    13  H    0.613206  -0.020144  -0.019389   0.000113  -0.000001  -0.000104
    14  H   -0.020144   0.634269  -0.019906  -0.000236  -0.000054   0.000301
    15  H   -0.019389  -0.019906   0.616106  -0.001511  -0.000144   0.000832
    16  H    0.000113  -0.000236  -0.001511   0.635555  -0.017383  -0.023528
    17  H   -0.000001  -0.000054  -0.000144  -0.017383   0.606821  -0.019639
    18  H   -0.000104   0.000301   0.000832  -0.023528  -0.019639   0.606457
    19  H   -0.000004  -0.000016  -0.000031  -0.000120  -0.000000  -0.000414
    20  H    0.000018  -0.000111  -0.000004  -0.000465   0.005628  -0.000009
    21  H   -0.000111   0.002191  -0.000016   0.001890  -0.000309  -0.000119
    22  I   -0.000035   0.000016  -0.000056  -0.000002  -0.000137   0.000175
              19         20         21         22
     1  B    0.000797  -0.001313   0.001080   0.360170
     2  O    0.000035  -0.000148   0.000027  -0.034260
     3  O   -0.000457  -0.000028   0.004325  -0.034260
     4  C   -0.023712   0.011008  -0.002505   0.002657
     5  C    0.011876  -0.016720  -0.020069   0.002657
     6  C    0.014713  -0.000379  -0.002478   0.000053
     7  C    0.000198  -0.000415   0.000561  -0.000091
     8  C    0.007921  -0.008514  -0.002381   0.000053
     9  C    0.366477   0.384521   0.381322  -0.000091
    10  H   -0.001511   0.000113  -0.000236  -0.000002
    11  H   -0.000144  -0.000001  -0.000054  -0.000137
    12  H    0.000832  -0.000104   0.000301   0.000175
    13  H   -0.000004   0.000018  -0.000111  -0.000035
    14  H   -0.000016  -0.000111   0.002191   0.000016
    15  H   -0.000031  -0.000004  -0.000016  -0.000056
    16  H   -0.000120  -0.000465   0.001890  -0.000002
    17  H   -0.000000   0.005628  -0.000309  -0.000137
    18  H   -0.000414  -0.000009  -0.000119   0.000175
    19  H    0.616106  -0.019389  -0.019906  -0.000056
    20  H   -0.019389   0.613206  -0.020144  -0.000035
    21  H   -0.019906  -0.020144   0.634269   0.000016
    22  I   -0.000056  -0.000035   0.000016  24.870217
 Mulliken charges:
               1
     1  B    0.170953
     2  O   -0.228274
     3  O   -0.228274
     4  C   -0.137765
     5  C   -0.137764
     6  C    0.025458
     7  C    0.039815
     8  C    0.025458
     9  C    0.039815
    10  H    0.043421
    11  H    0.058477
    12  H    0.054468
    13  H    0.053284
    14  H    0.042347
    15  H    0.046805
    16  H    0.043421
    17  H    0.058477
    18  H    0.054468
    19  H    0.046805
    20  H    0.053284
    21  H    0.042347
    22  I   -0.167025
 Sum of Mulliken charges =  -0.00000
 Mulliken charges with hydrogens summed into heavy atoms:
               1
     1  B    0.170953
     2  O   -0.228274
     3  O   -0.228274
     4  C   -0.137765
     5  C   -0.137764
     6  C    0.181824
     7  C    0.182251
     8  C    0.181824
     9  C    0.182251
    22  I   -0.167025
 APT charges:
               1
     1  B    1.321965
     2  O   -0.963755
     3  O   -0.963755
     4  C    0.502034
     5  C    0.502035
     6  C   -0.071603
     7  C   -0.048971
     8  C   -0.071603
     9  C   -0.048971
    10  H    0.008891
    11  H    0.017936
    12  H    0.013172
    13  H    0.014460
    14  H    0.007563
    15  H    0.017437
    16  H    0.008891
    17  H    0.017936
    18  H    0.013172
    19  H    0.017437
    20  H    0.014460
    21  H    0.007563
    22  I   -0.316295
 Sum of APT charges =   0.00000
 APT charges with hydrogens summed into heavy atoms:
               1
     1  B    1.321965
     2  O   -0.963755
     3  O   -0.963755
     4  C    0.502034
     5  C    0.502035
     6  C   -0.031605
     7  C   -0.009510
     8  C   -0.031605
     9  C   -0.009510
    22  I   -0.316295
 Electronic spatial extent (au):  <R**2>=           2326.0813
 Charge=             -0.0000 electrons
 Dipole moment (field-independent basis, Debye):
    X=             -4.1327    Y=             -0.0000    Z=             -0.0000  Tot=              4.1327
 Quadrupole moment (field-independent basis, Debye-Ang):
   XX=            -74.1650   YY=            -82.7503   ZZ=            -80.7373
   XY=              0.0000   XZ=              0.0000   YZ=              1.8778
 Traceless Quadrupole moment (field-independent basis, Debye-Ang):
   XX=              5.0525   YY=             -3.5327   ZZ=             -1.5198
   XY=              0.0000   XZ=              0.0000   YZ=              1.8778
 Octapole moment (field-independent basis, Debye-Ang**2):
  XXX=             91.4547  YYY=              0.0000  ZZZ=              0.0000  XYY=             28.2760
  XXY=              0.0000  XXZ=              0.0001  XZZ=             32.2849  YZZ=             -0.0000
  YYZ=              0.0000  XYZ=              0.1409
 Hexadecapole moment (field-independent basis, Debye-Ang**3):
 XXXX=          -2249.4070 YYYY=           -579.9563 ZZZZ=           -408.1783 XXXY=              0.0001
 XXXZ=              0.0002 YYYX=              0.0000 YYYZ=             -2.1871 ZZZX=              0.0000
 ZZZY=             -4.0171 XXYY=           -487.9781 XXZZ=           -463.8004 YYZZ=           -172.1407
 XXYZ=             -1.5106 YYXZ=              0.0000 ZZXY=              0.0000
 N-N= 7.177362815304D+02 E-N=-3.022344448696D+03  KE= 5.200830503308D+02
  Exact polarizability: 132.852   0.000  92.632   0.000   1.042  86.665
 Approx polarizability: 172.402   0.000 129.206   0.000  -1.778 122.249
 No NMR shielding tensors so no spin-rotation constants.
 Leave Link  601 at Thu Apr 25 01:56:22 2024, MaxMem= 10737418240 cpu:               4.4 elap:               0.1
 (Enter /lustre/home/acct-chenxiangyang/chenxiangyang-user1/software/g16/l701.exe)
 ... and contract with generalized density number  0.
 Compute integral second derivatives.
 R6Disp: Adding Grimme-D3(BJ) dispersion energy 2nd derivatives to the Hessian.
   1 Symmetry operations used in ECPInt.
 ECPInt:  NShTT=    5050 NPrTT=   18521 LenC2=    4998 LenP2D=   14472.
 LDataN:  DoStor=T MaxTD1= 8 Len=  415
 Leave Link  701 at Thu Apr 25 01:56:23 2024, MaxMem= 10737418240 cpu:              31.0 elap:               0.8
 (Enter /lustre/home/acct-chenxiangyang/chenxiangyang-user1/software/g16/l702.exe)
 L702 exits ... SP integral derivatives will be done elsewhere.
 Leave Link  702 at Thu Apr 25 01:56:23 2024, MaxMem= 10737418240 cpu:               0.6 elap:               0.0
 (Enter /lustre/home/acct-chenxiangyang/chenxiangyang-user1/software/g16/l703.exe)
 Integral derivatives from FoFJK, PRISM(SPDF).
 Compute integral second derivatives, UseDBF=F ICtDFT=           0.
 Calling FoFJK, ICntrl=    100127 FMM=F ISym2X=0 I1Cent= 0 IOpClX= 0 NMat=1 NMatS=1 NMatT=0.
 FoFJK:  IHMeth= 1 ICntrl=  100127 DoSepK=F KAlg= 0 I1Cent=           0 FoldK=F
 IRaf=         0 NMat=       1 IRICut=       1 DoRegI=T DoRafI=F ISym2E= 0 IDoP0=0 IntGTp=1.
 FoFCou: FMM=F IPFlag=           0 FMFlag=      100000 FMFlg1=         800
         NFxFlg=           0 DoJE=F BraDBF=F KetDBF=F FulRan=T
         wScrn=  0.000000 ICntrl=    100127 IOpCl=  0 I1Cent=           0 NGrid=           0
         NMat0=    1 NMatS0=      1 NMatT0=    0 NMatD0=    1 NMtDS0=    0 NMtDT0=    0
 Symmetry not used in FoFCou.
 Defaulting to unpruned grid for atomic number  53.
 Defaulting to unpruned grid for atomic number  53.
 Defaulting to unpruned grid for atomic number  53.
 Defaulting to unpruned grid for atomic number  53.
 Defaulting to unpruned grid for atomic number  53.
 Defaulting to unpruned grid for atomic number  53.
 Defaulting to unpruned grid for atomic number  53.
 Defaulting to unpruned grid for atomic number  53.
 Defaulting to unpruned grid for atomic number  53.
 Defaulting to unpruned grid for atomic number  53.
 Defaulting to unpruned grid for atomic number  53.
 Defaulting to unpruned grid for atomic number  53.
 Defaulting to unpruned grid for atomic number  53.
 Defaulting to unpruned grid for atomic number  53.
 Defaulting to unpruned grid for atomic number  53.
 Defaulting to unpruned grid for atomic number  53.
 Defaulting to unpruned grid for atomic number  53.
 Defaulting to unpruned grid for atomic number  53.
 Defaulting to unpruned grid for atomic number  53.
 Defaulting to unpruned grid for atomic number  53.
 Defaulting to unpruned grid for atomic number  53.
 Defaulting to unpruned grid for atomic number  53.
 Defaulting to unpruned grid for atomic number  53.
 Defaulting to unpruned grid for atomic number  53.
 Defaulting to unpruned grid for atomic number  53.
 Defaulting to unpruned grid for atomic number  53.
 Defaulting to unpruned grid for atomic number  53.
 Defaulting to unpruned grid for atomic number  53.
 Defaulting to unpruned grid for atomic number  53.
 Defaulting to unpruned grid for atomic number  53.
 Defaulting to unpruned grid for atomic number  53.
 Defaulting to unpruned grid for atomic number  53.
 Defaulting to unpruned grid for atomic number  53.
 Defaulting to unpruned grid for atomic number  53.
 Defaulting to unpruned grid for atomic number  53.
 Defaulting to unpruned grid for atomic number  53.
 Defaulting to unpruned grid for atomic number  53.
 Defaulting to unpruned grid for atomic number  53.
 Defaulting to unpruned grid for atomic number  53.
 Defaulting to unpruned grid for atomic number  53.
 Leave Link  703 at Thu Apr 25 01:56:38 2024, MaxMem= 10737418240 cpu:             616.7 elap:              15.5
 (Enter /lustre/home/acct-chenxiangyang/chenxiangyang-user1/software/g16/l716.exe)
 Dipole        =-1.62591148D+00-1.62907610D-06-1.46191603D-06
 Polarizability= 1.32851896D+02 1.75474919D-05 9.26321747D+01
                 4.14151590D-05 1.04206249D+00 8.66652107D+01
 Full mass-weighted force constant matrix:
 Low frequencies ---   -7.2496   -2.8726   -0.0004    0.0007    0.0009    1.6919
 Low frequencies ---   74.0661  100.5425  142.4521
 Diagonal vibrational polarizability:
       23.0368089       5.4020204       5.6631768
 Harmonic frequencies (cm**-1), IR intensities (KM/Mole), Raman scattering
 activities (A**4/AMU), depolarization ratios for plane and unpolarized
 incident light, reduced masses (AMU), force constants (mDyne/A),
 and normal coordinates:
                      1                      2                      3
                      A                      A                      A
 Frequencies --     74.0659               100.5425               142.4521
 Red. masses --      4.4717                 3.5327                 4.6960
 Frc consts  --      0.0145                 0.0210                 0.0561
 IR Inten    --      0.5539                 0.0938                 0.4874
  Atom  AN      X      Y      Z        X      Y      Z        X      Y      Z
     1   5     0.00  -0.06  -0.18    -0.01  -0.00   0.00    -0.00   0.21  -0.09
     2   8     0.00  -0.07  -0.19    -0.02   0.06   0.17     0.09   0.17  -0.07
     3   8    -0.00  -0.07  -0.19    -0.02  -0.06  -0.17    -0.09   0.17  -0.07
     4   6    -0.03  -0.02  -0.04     0.01   0.01   0.01     0.07   0.05  -0.02
     5   6     0.03  -0.02  -0.04     0.01  -0.01  -0.01    -0.07   0.05  -0.02
     6   6    -0.22  -0.01  -0.01     0.20   0.01  -0.03     0.09   0.03  -0.01
     7   6     0.08   0.02   0.08    -0.12   0.01  -0.11     0.20  -0.06   0.04
     8   6     0.22  -0.01  -0.01     0.20  -0.01   0.03    -0.09   0.03  -0.01
     9   6    -0.08   0.02   0.08    -0.12  -0.01   0.11    -0.20  -0.06   0.04
    10   1    -0.26   0.03   0.13     0.23  -0.07  -0.14     0.06  -0.10   0.03
    11   1    -0.26  -0.02  -0.04     0.28   0.03  -0.02     0.23   0.06  -0.03
    12   1    -0.31  -0.04  -0.09     0.26   0.08   0.05    -0.00   0.12  -0.04
    13   1     0.03   0.02   0.07    -0.12   0.01  -0.10     0.38  -0.05   0.05
    14   1     0.07   0.07   0.21    -0.09   0.01  -0.25     0.15  -0.23   0.10
    15   1     0.23   0.01   0.04    -0.25   0.01  -0.08     0.22  -0.01   0.02
    16   1     0.26   0.03   0.13     0.23   0.07   0.14    -0.06  -0.10   0.03
    17   1     0.26  -0.02  -0.04     0.28  -0.03   0.02    -0.23   0.06  -0.03
    18   1     0.31  -0.04  -0.09     0.26  -0.08  -0.05     0.00   0.12  -0.04
    19   1    -0.23   0.01   0.04    -0.25  -0.01   0.08    -0.22  -0.01   0.02
    20   1    -0.03   0.02   0.07    -0.12  -0.01   0.10    -0.38  -0.05   0.05
    21   1    -0.07   0.07   0.21    -0.09  -0.01   0.25    -0.15  -0.23   0.10
    22  53    -0.00   0.02   0.05    -0.02   0.00  -0.00    -0.00  -0.06   0.02
                      4                      5                      6
                      A                      A                      A
 Frequencies --    212.5441               234.7786               241.8449
 Red. masses --      3.3601                 1.4043                 1.1454
 Frc consts  --      0.0894                 0.0456                 0.0395
 IR Inten    --      1.1114                 0.1649                 0.0584
  Atom  AN      X      Y      Z        X      Y      Z        X      Y      Z
     1   5    -0.02   0.00   0.00    -0.02   0.00   0.00     0.00   0.03  -0.01
     2   8    -0.06   0.00  -0.00    -0.03   0.02   0.02     0.01   0.02  -0.00
     3   8    -0.06  -0.00   0.00    -0.03  -0.02  -0.02    -0.01   0.02  -0.00
     4   6    -0.07   0.01  -0.01    -0.04  -0.00   0.01     0.01  -0.00  -0.01
     5   6    -0.07  -0.01   0.01    -0.04   0.00  -0.01    -0.01  -0.00  -0.01
     6   6    -0.09   0.01  -0.00    -0.04  -0.01   0.01     0.03  -0.05   0.01
     7   6    -0.17   0.09  -0.05    -0.02  -0.06  -0.01    -0.01   0.04   0.00
     8   6    -0.09  -0.01   0.00    -0.04   0.01  -0.01    -0.03  -0.05   0.01
     9   6    -0.17  -0.09   0.05    -0.02   0.06   0.01     0.01   0.04   0.00
    10   1    -0.11  -0.02   0.04    -0.03   0.04  -0.01     0.00  -0.18   0.05
    11   1    -0.07   0.01  -0.00    -0.10  -0.02   0.02     0.16  -0.02   0.04
    12   1    -0.14   0.02  -0.03    -0.01  -0.04   0.02    -0.05  -0.00  -0.03
    13   1    -0.46   0.07  -0.16     0.32  -0.04   0.18    -0.33   0.01  -0.20
    14   1    -0.10   0.37  -0.02    -0.08  -0.42  -0.21     0.04   0.37   0.19
    15   1    -0.08  -0.08  -0.01    -0.28   0.18  -0.03     0.24  -0.21   0.02
    16   1    -0.11   0.02  -0.04    -0.03  -0.04   0.01    -0.00  -0.18   0.05
    17   1    -0.07  -0.01   0.00    -0.10   0.02  -0.02    -0.16  -0.02   0.04
    18   1    -0.14  -0.02   0.03    -0.01   0.04  -0.02     0.05  -0.00  -0.03
    19   1    -0.08   0.08   0.01    -0.28  -0.18   0.03    -0.24  -0.21   0.02
    20   1    -0.46  -0.07   0.16     0.32   0.04  -0.18     0.33   0.01  -0.20
    21   1    -0.10  -0.37   0.02    -0.08   0.42   0.21    -0.04   0.37   0.19
    22  53     0.09   0.00   0.00     0.03  -0.00   0.00    -0.00  -0.00   0.00
                      7                      8                      9
                      A                      A                      A
 Frequencies --    283.5212               299.2353               309.4267
 Red. masses --      2.2535                 2.0461                 1.1729
 Frc consts  --      0.1067                 0.1079                 0.0662
 IR Inten    --      0.4137                 0.0139                 0.0395
  Atom  AN      X      Y      Z        X      Y      Z        X      Y      Z
     1   5     0.00  -0.08   0.02    -0.02  -0.00   0.00    -0.01   0.00  -0.00
     2   8    -0.01  -0.07   0.02    -0.04   0.05   0.11    -0.01   0.02   0.05
     3   8     0.01  -0.07   0.02    -0.04  -0.05  -0.11    -0.01  -0.02  -0.05
     4   6    -0.00  -0.01   0.03    -0.04  -0.00   0.03    -0.01   0.00   0.01
     5   6     0.00  -0.01   0.03    -0.04   0.00  -0.03    -0.01  -0.00  -0.01
     6   6     0.02   0.18  -0.06    -0.03   0.04   0.02    -0.01   0.05  -0.00
     7   6     0.03  -0.09   0.02     0.04  -0.12   0.05     0.01  -0.01   0.02
     8   6    -0.02   0.18  -0.06    -0.03  -0.04  -0.02    -0.01  -0.05   0.00
     9   6    -0.03  -0.09   0.02     0.04   0.12  -0.05     0.01   0.01  -0.02
    10   1     0.01   0.15  -0.04    -0.08  -0.12   0.15     0.08   0.41  -0.18
    11   1     0.11   0.18  -0.25     0.19   0.08  -0.10    -0.40  -0.03   0.02
    12   1    -0.01   0.36   0.00    -0.20   0.24  -0.02     0.26  -0.16   0.10
    13   1    -0.07  -0.09  -0.16    -0.00  -0.12  -0.16    -0.03  -0.01  -0.04
    14   1     0.04   0.05   0.18     0.02  -0.04   0.27     0.01   0.04   0.10
    15   1     0.20  -0.25   0.04     0.22  -0.32   0.08     0.09  -0.07   0.03
    16   1    -0.01   0.15  -0.04    -0.08   0.12  -0.15     0.08  -0.41   0.18
    17   1    -0.11   0.18  -0.25     0.19  -0.08   0.10    -0.40   0.03  -0.02
    18   1     0.01   0.36   0.00    -0.20  -0.24   0.02     0.26   0.16  -0.10
    19   1    -0.20  -0.25   0.04     0.22   0.32  -0.08     0.09   0.07  -0.03
    20   1     0.07  -0.09  -0.16    -0.00   0.12   0.16    -0.03   0.01   0.04
    21   1    -0.04   0.05   0.18     0.02   0.04  -0.27     0.01  -0.04  -0.10
    22  53    -0.00   0.00  -0.00     0.02   0.00  -0.00     0.00  -0.00   0.00
                     10                     11                     12
                      A                      A                      A
 Frequencies --    318.1824               352.0914               368.5212
 Red. masses --      1.0684                 2.3206                 2.1675
 Frc consts  --      0.0637                 0.1695                 0.1734
 IR Inten    --      0.0566                 0.7714                 0.2276
  Atom  AN      X      Y      Z        X      Y      Z        X      Y      Z
     1   5     0.00   0.01  -0.01    -0.00  -0.10  -0.04    -0.02   0.00   0.00
     2   8     0.01  -0.00  -0.01    -0.00  -0.08  -0.03    -0.02  -0.01  -0.04
     3   8    -0.01  -0.00  -0.01     0.00  -0.08  -0.03    -0.02   0.01   0.04
     4   6     0.01  -0.01  -0.00    -0.00  -0.02  -0.02    -0.03  -0.03  -0.02
     5   6    -0.01  -0.01  -0.00     0.00  -0.02  -0.02    -0.03   0.03   0.02
     6   6     0.03   0.00  -0.01     0.12  -0.01  -0.04     0.03  -0.17   0.03
     7   6     0.03   0.01   0.02     0.04   0.13   0.09    -0.01  -0.12  -0.05
     8   6    -0.03   0.00  -0.01    -0.12  -0.01  -0.04     0.03   0.17  -0.03
     9   6    -0.03   0.01   0.02    -0.04   0.13   0.09    -0.01   0.12   0.05
    10   1     0.12   0.33  -0.21     0.14  -0.14  -0.13     0.07  -0.14  -0.10
    11   1    -0.34  -0.07   0.06     0.27   0.02  -0.06    -0.07  -0.17   0.24
    12   1     0.31  -0.23   0.10     0.14   0.12   0.04     0.15  -0.36   0.03
    13   1    -0.06  -0.00  -0.02     0.09   0.14   0.33    -0.09  -0.13  -0.23
    14   1     0.04   0.10   0.10     0.02   0.05   0.07    -0.01  -0.02   0.05
    15   1     0.12  -0.05   0.01     0.06   0.36  -0.00     0.08  -0.29  -0.01
    16   1    -0.12   0.33  -0.21    -0.14  -0.14  -0.13     0.07   0.14   0.10
    17   1     0.34  -0.07   0.06    -0.27   0.02  -0.06    -0.07   0.17  -0.24
    18   1    -0.31  -0.23   0.10    -0.14   0.12   0.04     0.15   0.36  -0.03
    19   1    -0.12  -0.05   0.01    -0.06   0.36  -0.00     0.08   0.29   0.01
    20   1     0.06  -0.00  -0.02    -0.09   0.14   0.33    -0.09   0.13   0.23
    21   1    -0.04   0.10   0.10    -0.02   0.05   0.07    -0.01   0.02  -0.05
    22  53    -0.00  -0.00   0.00     0.00   0.00   0.00     0.01  -0.00  -0.00
                     13                     14                     15
                      A                      A                      A
 Frequencies --    405.2576               412.2092               490.6658
 Red. masses --      2.5272                 3.8871                 2.5929
 Frc consts  --      0.2445                 0.3891                 0.3678
 IR Inten    --      0.0525                 1.4331                 0.6092
  Atom  AN      X      Y      Z        X      Y      Z        X      Y      Z
     1   5     0.08  -0.00  -0.00     0.00   0.03   0.31     0.00   0.13   0.09
     2   8     0.10   0.02   0.07    -0.08   0.01   0.12     0.14  -0.01   0.01
     3   8     0.10  -0.02  -0.07     0.08   0.01   0.12    -0.14  -0.01   0.01
     4   6     0.11   0.01   0.02    -0.02  -0.01  -0.13     0.09  -0.14   0.02
     5   6     0.11  -0.01  -0.02     0.02  -0.01  -0.13    -0.09  -0.14   0.02
     6   6    -0.10  -0.00   0.07    -0.08  -0.06  -0.12    -0.03   0.02  -0.05
     7   6    -0.00  -0.03  -0.11     0.13   0.04  -0.00    -0.03   0.04   0.01
     8   6    -0.10   0.00  -0.07     0.08  -0.06  -0.12     0.03   0.02  -0.05
     9   6    -0.00   0.03   0.11    -0.13   0.04  -0.00     0.03   0.04   0.01
    10   1    -0.16   0.11   0.31    -0.11  -0.03  -0.01    -0.07   0.17   0.13
    11   1    -0.22  -0.03   0.05    -0.11  -0.07  -0.13    -0.11  -0.03  -0.31
    12   1    -0.24  -0.10  -0.09    -0.16  -0.08  -0.20    -0.13   0.15  -0.06
    13   1    -0.06  -0.03  -0.22     0.22   0.05   0.05    -0.23   0.02   0.21
    14   1     0.04   0.03  -0.27     0.07  -0.04   0.23     0.05   0.20  -0.19
    15   1    -0.16  -0.14  -0.03     0.36   0.10  -0.09    -0.13   0.19  -0.02
    16   1    -0.16  -0.11  -0.31     0.11  -0.03  -0.01     0.07   0.17   0.13
    17   1    -0.22   0.03  -0.05     0.11  -0.07  -0.13     0.11  -0.03  -0.31
    18   1    -0.24   0.10   0.09     0.16  -0.08  -0.20     0.13   0.15  -0.06
    19   1    -0.16   0.14   0.03    -0.36   0.10  -0.09     0.13   0.19  -0.02
    20   1    -0.06   0.03   0.22    -0.22   0.05   0.05     0.23   0.02   0.21
    21   1     0.04  -0.03   0.27    -0.07  -0.04   0.23    -0.05   0.20  -0.19
    22  53    -0.02  -0.00   0.00    -0.00   0.00  -0.01    -0.00  -0.00  -0.00
                     16                     17                     18
                      A                      A                      A
 Frequencies --    531.5454               586.7669               596.4208
 Red. masses --      3.3302                 4.8798                 5.2622
 Frc consts  --      0.5544                 0.9899                 1.1029
 IR Inten    --      1.4042                10.3611                13.9324
  Atom  AN      X      Y      Z        X      Y      Z        X      Y      Z
     1   5     0.03  -0.00  -0.00     0.00   0.02   0.30     0.00   0.21   0.34
     2   8     0.06  -0.06  -0.10     0.09  -0.16  -0.11    -0.06   0.03  -0.21
     3   8     0.06   0.06   0.10    -0.09  -0.16  -0.11     0.06   0.03  -0.21
     4   6     0.00  -0.01   0.13     0.07   0.11   0.01    -0.12  -0.02   0.02
     5   6     0.00   0.01  -0.13    -0.07   0.11   0.01     0.12  -0.02   0.02
     6   6     0.06   0.09   0.16     0.03   0.05   0.14     0.01  -0.01  -0.03
     7   6    -0.11  -0.08   0.09     0.10   0.06  -0.13    -0.13  -0.07   0.14
     8   6     0.06  -0.09  -0.16    -0.03   0.05   0.14    -0.01  -0.01  -0.03
     9   6    -0.11   0.08  -0.09    -0.10   0.06  -0.13     0.13  -0.07   0.14
    10   1     0.09   0.12   0.07     0.01  -0.02   0.19     0.07  -0.11  -0.28
    11   1     0.09   0.09   0.04     0.03   0.07   0.35     0.13   0.02  -0.03
    12   1     0.13   0.22   0.29     0.01  -0.11   0.05     0.16   0.09   0.15
    13   1    -0.15  -0.08  -0.04     0.13   0.06  -0.25    -0.10  -0.07   0.12
    14   1    -0.08  -0.06  -0.06     0.12   0.05  -0.23    -0.16  -0.12   0.20
    15   1    -0.30  -0.20   0.19    -0.03  -0.04  -0.06    -0.11  -0.09   0.14
    16   1     0.09  -0.12  -0.07    -0.01  -0.02   0.19    -0.07  -0.11  -0.28
    17   1     0.09  -0.09  -0.04    -0.03   0.07   0.35    -0.13   0.02  -0.03
    18   1     0.13  -0.22  -0.29    -0.01  -0.11   0.05    -0.16   0.09   0.15
    19   1    -0.30   0.20  -0.19     0.03  -0.04  -0.06     0.11  -0.09   0.14
    20   1    -0.15   0.08   0.04    -0.13   0.06  -0.25     0.10  -0.07   0.12
    21   1    -0.08   0.06   0.06    -0.12   0.05  -0.23     0.16  -0.12   0.20
    22  53    -0.00   0.00   0.00    -0.00  -0.00  -0.00    -0.00  -0.00  -0.01
                     19                     20                     21
                      A                      A                      A
 Frequencies --    687.0207               804.2076               860.6058
 Red. masses --      3.1923                10.6902                 3.5335
 Frc consts  --      0.8878                 4.0735                 1.5419
 IR Inten    --      6.1972                53.0865                 2.0192
  Atom  AN      X      Y      Z        X      Y      Z        X      Y      Z
     1   5    -0.03   0.00   0.00     0.50   0.00   0.00    -0.00   0.03  -0.03
     2   8    -0.10   0.05  -0.06     0.05   0.43  -0.16     0.21  -0.06   0.07
     3   8    -0.10  -0.05   0.06     0.05  -0.43   0.16    -0.21  -0.06   0.07
     4   6    -0.03   0.14  -0.01    -0.05   0.09  -0.02    -0.07   0.12  -0.02
     5   6    -0.03  -0.14   0.01    -0.05  -0.09   0.02     0.07   0.12  -0.02
     6   6     0.02   0.09   0.15    -0.03  -0.02  -0.08    -0.04   0.00  -0.11
     7   6     0.09   0.07  -0.11    -0.07  -0.03   0.08    -0.08   0.01   0.06
     8   6     0.02  -0.09  -0.15    -0.03   0.02   0.08     0.04   0.00  -0.11
     9   6     0.09  -0.07   0.11    -0.07   0.03  -0.08     0.08   0.01   0.06
    10   1     0.03  -0.03   0.09    -0.00  -0.10  -0.20    -0.03  -0.22  -0.22
    11   1     0.09   0.13   0.40     0.01   0.00   0.03     0.03   0.04   0.18
    12   1     0.07  -0.04   0.12     0.04  -0.06  -0.04    -0.00  -0.21  -0.20
    13   1     0.26   0.09  -0.29    -0.14  -0.04   0.07     0.14   0.03  -0.11
    14   1     0.05  -0.04  -0.04    -0.06  -0.01   0.03    -0.18  -0.20   0.24
    15   1     0.12  -0.04  -0.08    -0.16  -0.05   0.12    -0.03  -0.14   0.10
    16   1     0.03   0.03  -0.09    -0.00   0.10   0.20     0.03  -0.22  -0.22
    17   1     0.09  -0.13  -0.40     0.01  -0.00  -0.03    -0.03   0.04   0.18
    18   1     0.07   0.04  -0.12     0.04   0.06   0.04     0.00  -0.21  -0.20
    19   1     0.12   0.04   0.08    -0.16   0.05  -0.12     0.03  -0.14   0.10
    20   1     0.26  -0.09   0.29    -0.14   0.04  -0.07    -0.14   0.03  -0.11
    21   1     0.05   0.04   0.04    -0.06   0.01  -0.03     0.18  -0.20   0.24
    22  53     0.00  -0.00   0.00    -0.02  -0.00  -0.00     0.00  -0.00   0.00
                     22                     23                     24
                      A                      A                      A
 Frequencies --    885.8906               938.7069               939.1850
 Red. masses --      2.2733                 1.4811                 1.4036
 Frc consts  --      1.0512                 0.7689                 0.7294
 IR Inten    --     31.0629                 0.7030                 0.0603
  Atom  AN      X      Y      Z        X      Y      Z        X      Y      Z
     1   5     0.06  -0.00  -0.00    -0.00   0.01  -0.01     0.01   0.00  -0.00
     2   8     0.12  -0.07   0.04     0.01  -0.00  -0.01    -0.01   0.01  -0.01
     3   8     0.12   0.07  -0.04    -0.01  -0.00  -0.01    -0.01  -0.01   0.01
     4   6    -0.07   0.10  -0.04    -0.02  -0.02  -0.06     0.01  -0.03  -0.05
     5   6    -0.07  -0.10   0.04     0.02  -0.02  -0.06     0.01   0.03   0.05
     6   6    -0.03   0.04  -0.04     0.06   0.04   0.05     0.07   0.05   0.03
     7   6    -0.09   0.03   0.02    -0.08  -0.03  -0.03    -0.05  -0.06  -0.02
     8   6    -0.03  -0.04   0.04    -0.06   0.04   0.05     0.07  -0.05  -0.03
     9   6    -0.09  -0.03  -0.02     0.08  -0.03  -0.03    -0.05   0.06   0.02
    10   1    -0.02  -0.17  -0.13    -0.01   0.12   0.32    -0.02   0.10   0.33
    11   1     0.05   0.09   0.29    -0.08   0.02   0.12    -0.09   0.02   0.14
    12   1     0.02  -0.16  -0.10    -0.08  -0.06  -0.11    -0.09  -0.12  -0.18
    13   1     0.22   0.05  -0.11     0.03  -0.03   0.22    -0.10  -0.06   0.31
    14   1    -0.21  -0.22   0.31    -0.15  -0.08   0.32    -0.08   0.02   0.21
    15   1     0.11  -0.08   0.00     0.27   0.16  -0.20     0.21   0.20  -0.19
    16   1    -0.02   0.17   0.13     0.01   0.12   0.32    -0.02  -0.10  -0.33
    17   1     0.05  -0.09  -0.29     0.08   0.02   0.12    -0.09  -0.02  -0.14
    18   1     0.02   0.16   0.10     0.08  -0.06  -0.11    -0.09   0.12   0.18
    19   1     0.11   0.08  -0.00    -0.27   0.16  -0.20     0.21  -0.20   0.19
    20   1     0.22  -0.05   0.11    -0.03  -0.03   0.22    -0.10   0.06  -0.31
    21   1    -0.21   0.22  -0.31     0.15  -0.08   0.32    -0.08  -0.02  -0.21
    22  53    -0.00  -0.00  -0.00     0.00  -0.00   0.00    -0.00  -0.00   0.00
                     25                     26                     27
                      A                      A                      A
 Frequencies --    972.1401               984.0884               998.7027
 Red. masses --      1.6783                 1.7262                 1.3292
 Frc consts  --      0.9345                 0.9850                 0.7811
 IR Inten    --      2.2538                12.3448                 0.0298
  Atom  AN      X      Y      Z        X      Y      Z        X      Y      Z
     1   5     0.00   0.03  -0.01     0.04  -0.00  -0.00    -0.00   0.01  -0.00
     2   8     0.05   0.00   0.02     0.06  -0.00   0.03     0.01   0.01   0.02
     3   8    -0.05   0.00   0.02     0.06   0.00  -0.03    -0.01   0.01   0.02
     4   6    -0.09  -0.04  -0.02    -0.08  -0.05  -0.02    -0.03  -0.02   0.00
     5   6     0.09  -0.04  -0.02    -0.08   0.05   0.02     0.03  -0.02   0.00
     6   6    -0.05  -0.03   0.08    -0.07   0.02   0.06    -0.06   0.06  -0.00
     7   6    -0.00   0.04  -0.07     0.04  -0.05  -0.07     0.03  -0.06  -0.04
     8   6     0.05  -0.03   0.08    -0.07  -0.02  -0.06     0.06   0.06  -0.00
     9   6     0.00   0.04  -0.07     0.04   0.05   0.07    -0.03  -0.06  -0.04
    10   1     0.04   0.04  -0.19     0.02  -0.11  -0.27    -0.01  -0.22  -0.23
    11   1     0.09  -0.03  -0.21     0.13   0.06   0.05     0.12   0.13   0.32
    12   1     0.11   0.30   0.40     0.15   0.15   0.31     0.12  -0.09   0.07
    13   1     0.17   0.05  -0.12    -0.15  -0.05   0.21    -0.20  -0.07   0.26
    14   1    -0.06  -0.08   0.11     0.09   0.16  -0.06     0.10   0.17  -0.08
    15   1     0.18   0.02  -0.12     0.15   0.23  -0.20     0.08   0.21  -0.15
    16   1    -0.04   0.04  -0.19     0.02   0.11   0.27     0.01  -0.22  -0.23
    17   1    -0.09  -0.03  -0.21     0.13  -0.06  -0.05    -0.12   0.13   0.32
    18   1    -0.11   0.30   0.40     0.15  -0.15  -0.31    -0.12  -0.09   0.07
    19   1    -0.18   0.02  -0.12     0.15  -0.23   0.20    -0.08   0.21  -0.15
    20   1    -0.17   0.05  -0.12    -0.15   0.05  -0.21     0.20  -0.07   0.26
    21   1     0.06  -0.08   0.11     0.09  -0.16   0.06    -0.10   0.17  -0.08
    22  53    -0.00  -0.00   0.00    -0.00  -0.00  -0.00    -0.00  -0.00   0.00
                     28                     29                     30
                      A                      A                      A
 Frequencies --   1010.0054              1138.7102              1177.2974
 Red. masses --      1.3945                 2.4466                 2.8970
 Frc consts  --      0.8381                 1.8691                 2.3658
 IR Inten    --      0.0202                 3.5887               376.3416
  Atom  AN      X      Y      Z        X      Y      Z        X      Y      Z
     1   5     0.04   0.00  -0.00     0.00   0.10  -0.04     0.08  -0.00  -0.00
     2   8     0.02   0.01  -0.01    -0.06  -0.02  -0.00    -0.10  -0.01  -0.00
     3   8     0.02  -0.01   0.01     0.06  -0.02  -0.00    -0.10   0.01   0.00
     4   6    -0.03  -0.02  -0.00     0.13  -0.12   0.08     0.22  -0.06   0.06
     5   6    -0.03   0.02   0.00    -0.13  -0.12   0.08     0.22   0.06  -0.06
     6   6     0.02  -0.07   0.05    -0.04   0.06  -0.03    -0.09   0.03  -0.00
     7   6    -0.04   0.05  -0.05    -0.05   0.09  -0.03    -0.08   0.00  -0.03
     8   6     0.02   0.07  -0.05     0.04   0.06  -0.03    -0.09  -0.03   0.00
     9   6    -0.04  -0.05   0.05     0.05   0.09  -0.03    -0.08  -0.00   0.03
    10   1     0.03   0.20   0.09    -0.03  -0.21  -0.12    -0.01  -0.19  -0.32
    11   1    -0.05  -0.13  -0.37     0.09   0.11   0.22     0.19   0.08   0.06
    12   1    -0.04   0.24   0.17     0.11  -0.17  -0.03     0.15  -0.07   0.14
    13   1     0.22   0.07  -0.11     0.30   0.11  -0.16     0.15   0.01   0.12
    14   1    -0.14  -0.14   0.21    -0.15  -0.19   0.16    -0.16  -0.12   0.26
    15   1     0.20  -0.02  -0.09     0.18  -0.15  -0.01     0.20  -0.04  -0.08
    16   1     0.03  -0.20  -0.09     0.03  -0.21  -0.12    -0.01   0.19   0.32
    17   1    -0.05   0.13   0.37    -0.09   0.11   0.22     0.19  -0.08  -0.06
    18   1    -0.04  -0.24  -0.17    -0.11  -0.17  -0.03     0.15   0.07  -0.14
    19   1     0.20   0.02   0.09    -0.18  -0.15  -0.01     0.20   0.04   0.08
    20   1     0.22  -0.07   0.11    -0.30   0.11  -0.16     0.15  -0.01  -0.12
    21   1    -0.14   0.14  -0.21     0.15  -0.19   0.16    -0.16   0.12  -0.26
    22  53    -0.00  -0.00  -0.00    -0.00   0.00  -0.00    -0.00  -0.00  -0.00
                     31                     32                     33
                      A                      A                      A
 Frequencies --   1198.9993              1254.1401              1258.6184
 Red. masses --      2.7280                 2.8624                 8.6791
 Frc consts  --      2.3107                 2.6526                 8.1005
 IR Inten    --     30.9105                18.4372               586.1061
  Atom  AN      X      Y      Z        X      Y      Z        X      Y      Z
     1   5    -0.00   0.01   0.01    -0.00  -0.00   0.01     0.66  -0.00  -0.00
     2   8    -0.01  -0.01  -0.03     0.02   0.02  -0.02    -0.20  -0.22   0.08
     3   8     0.01  -0.01  -0.03    -0.02   0.02  -0.02    -0.20   0.22  -0.08
     4   6     0.05   0.12   0.20    -0.21  -0.10   0.13    -0.07   0.08  -0.06
     5   6    -0.05   0.12   0.20     0.21  -0.10   0.13    -0.07  -0.08   0.06
     6   6    -0.01  -0.08  -0.05     0.07   0.03  -0.05     0.05  -0.04   0.01
     7   6    -0.03  -0.04  -0.09     0.04   0.04  -0.02     0.05  -0.03   0.03
     8   6     0.01  -0.08  -0.05    -0.07   0.03  -0.05     0.05   0.04  -0.01
     9   6     0.03  -0.04  -0.09    -0.04   0.04  -0.02     0.05   0.03  -0.03
    10   1     0.02  -0.01  -0.15    -0.02  -0.07   0.21     0.02   0.16   0.15
    11   1    -0.06  -0.12  -0.32    -0.20  -0.02   0.11    -0.07  -0.06  -0.02
    12   1    -0.09  -0.01  -0.09    -0.09  -0.12  -0.25    -0.09   0.13  -0.01
    13   1     0.07  -0.03   0.23     0.18   0.05  -0.27    -0.15  -0.04   0.01
    14   1    -0.03   0.14   0.17     0.11   0.09  -0.27     0.10   0.09  -0.12
    15   1     0.25   0.19  -0.24     0.15   0.08  -0.08    -0.15   0.06   0.05
    16   1    -0.02  -0.01  -0.15     0.02  -0.07   0.21     0.02  -0.16  -0.15
    17   1     0.06  -0.12  -0.32     0.20  -0.02   0.11    -0.07   0.06   0.02
    18   1     0.09  -0.01  -0.09     0.09  -0.12  -0.25    -0.09  -0.13   0.01
    19   1    -0.25   0.19  -0.24    -0.15   0.08  -0.08    -0.15  -0.06  -0.05
    20   1    -0.07  -0.03   0.23    -0.18   0.05  -0.27    -0.15   0.04  -0.01
    21   1     0.03   0.14   0.17    -0.11   0.09  -0.27     0.10  -0.09   0.12
    22  53     0.00   0.00   0.00     0.00  -0.00   0.00    -0.01  -0.00  -0.00
                     34                     35                     36
                      A                      A                      A
 Frequencies --   1281.9292              1308.1133              1386.7896
 Red. masses --      2.5099                 2.8450                 1.4042
 Frc consts  --      2.4302                 2.8682                 1.5912
 IR Inten    --      0.3964                 8.0998                40.6306
  Atom  AN      X      Y      Z        X      Y      Z        X      Y      Z
     1   5     0.01   0.00  -0.00    -0.10   0.00   0.00    -0.00  -0.05   0.02
     2   8     0.00  -0.02  -0.02     0.00  -0.01   0.00     0.01   0.02  -0.01
     3   8     0.00   0.02   0.02     0.00   0.01  -0.00    -0.01   0.02  -0.01
     4   6    -0.03   0.10   0.22     0.09   0.23  -0.08    -0.00  -0.00   0.04
     5   6    -0.03  -0.10  -0.22     0.09  -0.23   0.08     0.00  -0.00   0.04
     6   6     0.02  -0.01  -0.03    -0.03  -0.08   0.02    -0.02  -0.05  -0.10
     7   6    -0.01  -0.05  -0.05    -0.00  -0.07  -0.00     0.02   0.01  -0.04
     8   6     0.02   0.01   0.03    -0.03   0.08  -0.02     0.02  -0.05  -0.10
     9   6    -0.01   0.05   0.05    -0.00   0.07   0.00    -0.02   0.01  -0.04
    10   1     0.03  -0.12  -0.13     0.05   0.24  -0.14    -0.11   0.23   0.31
    11   1    -0.13  -0.06  -0.24     0.13  -0.05  -0.13     0.12   0.03   0.36
    12   1    -0.13  -0.15  -0.24    -0.06   0.20   0.13     0.17   0.23   0.22
    13   1     0.15  -0.03   0.02    -0.20  -0.08   0.27    -0.04   0.01   0.09
    14   1     0.07   0.26  -0.02    -0.02   0.09   0.24    -0.03  -0.04   0.15
    15   1     0.18   0.24  -0.20    -0.21   0.08   0.01    -0.11  -0.06   0.03
    16   1     0.03   0.12   0.13     0.05  -0.24   0.14     0.11   0.23   0.31
    17   1    -0.13   0.06   0.24     0.13   0.05   0.13    -0.12   0.03   0.36
    18   1    -0.13   0.15   0.24    -0.06  -0.20  -0.13    -0.17   0.23   0.22
    19   1     0.18  -0.24   0.20    -0.21  -0.08  -0.01     0.11  -0.06   0.03
    20   1     0.15   0.03  -0.02    -0.20   0.08  -0.27     0.04   0.01   0.09
    21   1     0.07  -0.26   0.02    -0.02  -0.09  -0.24     0.03  -0.04   0.15
    22  53    -0.00   0.00   0.00     0.00   0.00   0.00     0.00   0.00   0.00
                     37                     38                     39
                      A                      A                      A
 Frequencies --   1394.4428              1396.2907              1401.4009
 Red. masses --      1.6335                 1.3811                 5.7489
 Frc consts  --      1.8714                 1.5865                 6.6521
 IR Inten    --      0.2943                13.8272               217.8699
  Atom  AN      X      Y      Z        X      Y      Z        X      Y      Z
     1   5    -0.00   0.00  -0.00     0.00   0.02  -0.00     0.00   0.50  -0.19
     2   8    -0.00   0.00   0.01    -0.00  -0.00  -0.00    -0.10  -0.19   0.07
     3   8    -0.00  -0.00  -0.01     0.00  -0.00  -0.00     0.10  -0.19   0.07
     4   6     0.02   0.00  -0.10    -0.04  -0.02   0.03    -0.07   0.05  -0.01
     5   6     0.02  -0.00   0.10     0.04  -0.02   0.03     0.07   0.05  -0.01
     6   6     0.01   0.04   0.11     0.02   0.02   0.02     0.02  -0.06  -0.02
     7   6    -0.03  -0.02   0.06     0.08   0.05  -0.07     0.05  -0.03   0.01
     8   6     0.01  -0.04  -0.11    -0.02   0.02   0.02    -0.02  -0.06  -0.02
     9   6    -0.03   0.02  -0.06    -0.08   0.05  -0.07    -0.05  -0.03   0.01
    10   1     0.11  -0.13  -0.30     0.02  -0.15  -0.05     0.02   0.34   0.10
    11   1    -0.03  -0.02  -0.37    -0.12  -0.02  -0.12     0.09  -0.01   0.18
    12   1    -0.16  -0.23  -0.18    -0.04  -0.07  -0.08    -0.12   0.18  -0.02
    13   1     0.04  -0.01  -0.17    -0.32   0.01   0.20    -0.15  -0.04  -0.08
    14   1     0.03   0.01  -0.21    -0.08  -0.27   0.30     0.06   0.04  -0.02
    15   1     0.15   0.09  -0.03    -0.26  -0.15   0.10    -0.12   0.16  -0.01
    16   1     0.11   0.13   0.30    -0.02  -0.15  -0.05    -0.02   0.34   0.10
    17   1    -0.03   0.02   0.37     0.12  -0.02  -0.12    -0.09  -0.01   0.18
    18   1    -0.16   0.23   0.18     0.04  -0.07  -0.08     0.12   0.18  -0.02
    19   1     0.15  -0.09   0.03     0.26  -0.15   0.10     0.12   0.16  -0.01
    20   1     0.04   0.01   0.17     0.32   0.01   0.20     0.15  -0.04  -0.08
    21   1     0.03  -0.01   0.21     0.08  -0.27   0.30    -0.06   0.04  -0.02
    22  53     0.00   0.00   0.00    -0.00   0.00   0.00    -0.00  -0.00   0.00
                     40                     41                     42
                      A                      A                      A
 Frequencies --   1403.2748              1440.0571              1448.7103
 Red. masses --      1.3011                 1.0689                 1.0539
 Frc consts  --      1.5096                 1.3060                 1.3031
 IR Inten    --     15.5837                 0.1441                 2.6761
  Atom  AN      X      Y      Z        X      Y      Z        X      Y      Z
     1   5     0.01   0.00  -0.00    -0.00  -0.00   0.00    -0.00   0.01  -0.01
     2   8     0.00  -0.00  -0.00    -0.00   0.00   0.00    -0.00  -0.00   0.00
     3   8     0.00   0.00   0.00    -0.00  -0.00  -0.00     0.00  -0.00   0.00
     4   6    -0.02  -0.02   0.02     0.01  -0.01  -0.03    -0.01  -0.01  -0.01
     5   6    -0.02   0.02  -0.02     0.01   0.01   0.03     0.01  -0.01  -0.01
     6   6     0.02   0.03   0.04    -0.00   0.02  -0.00    -0.01   0.02   0.00
     7   6     0.06   0.04  -0.06    -0.00  -0.03   0.00     0.00  -0.03  -0.02
     8   6     0.02  -0.03  -0.04    -0.00  -0.02   0.00     0.01   0.02   0.00
     9   6     0.06  -0.04   0.06    -0.00   0.03  -0.00    -0.00  -0.03  -0.02
    10   1     0.05  -0.21  -0.14    -0.08  -0.25   0.18    -0.05  -0.07   0.13
    11   1    -0.16  -0.03  -0.18    -0.13  -0.03  -0.14     0.06   0.01  -0.15
    12   1    -0.08  -0.10  -0.11     0.22  -0.04   0.15     0.15  -0.17   0.04
    13   1    -0.24   0.01   0.18     0.22  -0.01  -0.15     0.28   0.00  -0.03
    14   1    -0.07  -0.19   0.31     0.03   0.28   0.22     0.05   0.36   0.27
    15   1    -0.27  -0.14   0.09    -0.26   0.16   0.01    -0.33   0.06   0.04
    16   1     0.05   0.21   0.14    -0.08   0.25  -0.18     0.05  -0.07   0.13
    17   1    -0.16   0.03   0.18    -0.13   0.03   0.14    -0.06   0.01  -0.15
    18   1    -0.08   0.10   0.11     0.22   0.04  -0.15    -0.15  -0.17   0.04
    19   1    -0.27   0.14  -0.09    -0.26  -0.16  -0.01     0.33   0.06   0.04
    20   1    -0.24  -0.01  -0.18     0.22   0.01   0.15    -0.28   0.00  -0.03
    21   1    -0.07   0.19  -0.31     0.03  -0.28  -0.22    -0.05   0.36   0.27
    22  53    -0.00  -0.00   0.00     0.00   0.00  -0.00     0.00  -0.00   0.00
                     43                     44                     45
                      A                      A                      A
 Frequencies --   1450.6938              1456.3434              1468.6464
 Red. masses --      1.0555                 1.0839                 1.0525
 Frc consts  --      1.3088                 1.3545                 1.3376
 IR Inten    --      0.3863                 2.1018                 4.2403
  Atom  AN      X      Y      Z        X      Y      Z        X      Y      Z
     1   5     0.00   0.00  -0.00    -0.00  -0.04   0.02    -0.00  -0.01   0.01
     2   8     0.00  -0.00  -0.00     0.01   0.02  -0.01     0.00   0.01  -0.00
     3   8     0.00   0.00   0.00    -0.01   0.02  -0.01    -0.00   0.01  -0.00
     4   6    -0.01   0.01   0.02    -0.00  -0.02   0.02     0.01  -0.02  -0.01
     5   6    -0.01  -0.01  -0.02     0.00  -0.02   0.02    -0.01  -0.02  -0.01
     6   6    -0.03   0.00  -0.01    -0.02  -0.01   0.02     0.02  -0.01   0.01
     7   6     0.02   0.00   0.01     0.02  -0.00   0.00    -0.01  -0.00  -0.02
     8   6    -0.03  -0.00   0.01     0.02  -0.01   0.02    -0.02  -0.01   0.01
     9   6     0.02  -0.00  -0.01    -0.02  -0.00   0.00     0.01  -0.00  -0.02
    10   1    -0.06   0.13   0.16     0.07   0.35  -0.16     0.11   0.04  -0.28
    11   1     0.28   0.05  -0.17     0.35   0.07   0.03    -0.17  -0.02   0.26
    12   1     0.19  -0.27   0.02    -0.15  -0.17  -0.18    -0.31   0.28  -0.11
    13   1    -0.26  -0.02  -0.22    -0.09  -0.00  -0.21     0.19   0.01   0.08
    14   1    -0.05  -0.22   0.07    -0.03  -0.08   0.14     0.02   0.19   0.11
    15   1    -0.01   0.23  -0.07    -0.10   0.21  -0.05    -0.14  -0.09   0.06
    16   1    -0.06  -0.13  -0.16    -0.07   0.35  -0.16    -0.11   0.04  -0.28
    17   1     0.28  -0.05   0.17    -0.35   0.07   0.03     0.17  -0.02   0.26
    18   1     0.19   0.27  -0.02     0.15  -0.17  -0.18     0.31   0.28  -0.11
    19   1    -0.01  -0.23   0.07     0.10   0.21  -0.05     0.14  -0.09   0.06
    20   1    -0.26   0.02   0.22     0.09  -0.00  -0.21    -0.19   0.01   0.08
    21   1    -0.05   0.22  -0.07     0.03  -0.08   0.14    -0.02   0.19   0.11
    22  53    -0.00  -0.00  -0.00     0.00   0.00  -0.00     0.00   0.00  -0.00
                     46                     47                     48
                      A                      A                      A
 Frequencies --   1475.9882              1478.4890              1491.1708
 Red. masses --      1.0651                 1.0944                 1.0667
 Frc consts  --      1.3672                 1.4095                 1.3975
 IR Inten    --      3.0467                 5.3433                 5.4889
  Atom  AN      X      Y      Z        X      Y      Z        X      Y      Z
     1   5    -0.00  -0.01   0.00     0.01  -0.00   0.00     0.00  -0.00  -0.00
     2   8     0.00   0.00  -0.00     0.00   0.00   0.00     0.00  -0.01   0.00
     3   8    -0.00   0.00  -0.00     0.00  -0.00  -0.00     0.00   0.01  -0.00
     4   6     0.03   0.00   0.00    -0.03  -0.04  -0.00    -0.02   0.04  -0.01
     5   6    -0.03   0.00   0.00    -0.03   0.04   0.00    -0.02  -0.04   0.01
     6   6     0.01   0.00  -0.01    -0.01  -0.00   0.02    -0.01   0.01  -0.00
     7   6     0.01  -0.02   0.02     0.00  -0.00  -0.02    -0.01   0.01  -0.01
     8   6    -0.01   0.00  -0.01    -0.01   0.00  -0.02    -0.01  -0.01   0.00
     9   6    -0.01  -0.02   0.02     0.00   0.00   0.02    -0.01  -0.01   0.01
    10   1    -0.02  -0.21   0.00     0.05   0.31  -0.09    -0.08  -0.08   0.20
    11   1    -0.25  -0.05   0.06     0.33   0.07  -0.01     0.07   0.00  -0.23
    12   1     0.01   0.17   0.09    -0.09  -0.20  -0.16     0.23  -0.20   0.08
    13   1    -0.13  -0.03  -0.36     0.24   0.02   0.08     0.06   0.01   0.33
    14   1    -0.04  -0.08   0.16     0.04   0.25   0.14     0.03   0.03  -0.19
    15   1    -0.10   0.38  -0.10    -0.20  -0.09   0.07     0.15  -0.32   0.07
    16   1     0.02  -0.21   0.00     0.05  -0.31   0.09    -0.08   0.08  -0.20
    17   1     0.25  -0.05   0.06     0.33  -0.07   0.01     0.07  -0.00   0.23
    18   1    -0.01   0.17   0.09    -0.09   0.20   0.16     0.23   0.20  -0.08
    19   1     0.10   0.38  -0.10    -0.20   0.09  -0.07     0.15   0.32  -0.07
    20   1     0.13  -0.03  -0.36     0.24  -0.02  -0.08     0.06  -0.01  -0.33
    21   1     0.04  -0.08   0.16     0.04  -0.25  -0.14     0.03  -0.03   0.19
    22  53     0.00   0.00  -0.00    -0.00  -0.00  -0.00    -0.00  -0.00  -0.00
                     49                     50                     51
                      A                      A                      A
 Frequencies --   3066.6674              3067.4938              3072.1015
 Red. masses --      1.0366                 1.0367                 1.0382
 Frc consts  --      5.7437                 5.7473                 5.7728
 IR Inten    --      0.0753                12.7583                 5.7163
  Atom  AN      X      Y      Z        X      Y      Z        X      Y      Z
     1   5     0.00  -0.00   0.00     0.00   0.00  -0.00     0.00   0.00  -0.00
     2   8    -0.00  -0.00  -0.00    -0.00  -0.00   0.00     0.00  -0.00   0.00
     3   8    -0.00   0.00   0.00     0.00  -0.00   0.00    -0.00  -0.00   0.00
     4   6    -0.00   0.00   0.00     0.00   0.00   0.00     0.00   0.00  -0.00
     5   6    -0.00  -0.00  -0.00    -0.00   0.00   0.00    -0.00   0.00  -0.00
     6   6    -0.00  -0.01  -0.03    -0.00  -0.02  -0.03    -0.00  -0.00  -0.01
     7   6     0.01   0.01  -0.01     0.00   0.00  -0.00    -0.03  -0.01   0.02
     8   6    -0.00   0.01   0.03     0.00  -0.02  -0.03     0.00  -0.00  -0.01
     9   6     0.01  -0.01   0.01    -0.00   0.00  -0.00     0.03  -0.01   0.02
    10   1     0.35  -0.04   0.10     0.39  -0.04   0.11     0.06  -0.01   0.02
    11   1    -0.08   0.34  -0.04    -0.08   0.37  -0.04    -0.01   0.05  -0.01
    12   1    -0.23  -0.15   0.27    -0.25  -0.16   0.30    -0.04  -0.03   0.05
    13   1     0.02  -0.17  -0.00     0.01  -0.07  -0.00    -0.03   0.40   0.00
    14   1    -0.19   0.05  -0.04    -0.07   0.02  -0.01     0.44  -0.12   0.09
    15   1     0.04   0.05   0.13     0.01   0.02   0.04    -0.09  -0.12  -0.30
    16   1     0.35   0.04  -0.10    -0.39  -0.04   0.11    -0.06  -0.01   0.02
    17   1    -0.08  -0.34   0.04     0.08   0.37  -0.04     0.01   0.05  -0.01
    18   1    -0.23   0.15  -0.27     0.25  -0.16   0.30     0.04  -0.03   0.05
    19   1     0.04  -0.05  -0.13    -0.01   0.02   0.04     0.09  -0.12  -0.30
    20   1     0.02   0.17   0.00    -0.01  -0.07  -0.00     0.03   0.40   0.00
    21   1    -0.19  -0.05   0.04     0.07   0.02  -0.01    -0.44  -0.12   0.09
    22  53    -0.00   0.00  -0.00    -0.00   0.00   0.00    -0.00  -0.00   0.00
                     52                     53                     54
                      A                      A                      A
 Frequencies --   3074.0889              3165.4699              3165.6303
 Red. masses --      1.0382                 1.1042                 1.1041
 Frc consts  --      5.7807                 6.5190                 6.5191
 IR Inten    --     12.8131                 0.4713                 3.3273
  Atom  AN      X      Y      Z        X      Y      Z        X      Y      Z
     1   5     0.00  -0.00  -0.00     0.00  -0.00  -0.00    -0.00  -0.00  -0.00
     2   8    -0.00  -0.00   0.00    -0.00   0.00  -0.00    -0.00   0.00   0.00
     3   8    -0.00   0.00  -0.00    -0.00  -0.00   0.00     0.00   0.00   0.00
     4   6     0.00   0.00  -0.00     0.00  -0.00   0.00     0.00  -0.00  -0.00
     5   6     0.00  -0.00   0.00     0.00   0.00  -0.00    -0.00  -0.00  -0.00
     6   6    -0.00  -0.01  -0.01    -0.02   0.01  -0.00     0.01   0.02  -0.01
     7   6    -0.03  -0.01   0.02     0.04  -0.05   0.01     0.04  -0.05   0.01
     8   6    -0.00   0.01   0.01    -0.02  -0.01   0.00    -0.01   0.02  -0.01
     9   6    -0.03   0.01  -0.02     0.04   0.05  -0.01    -0.04  -0.05   0.01
    10   1     0.16  -0.02   0.05     0.19  -0.02   0.06    -0.01   0.00  -0.00
    11   1    -0.04   0.17  -0.02     0.03  -0.15   0.02     0.04  -0.18   0.02
    12   1    -0.11  -0.07   0.13     0.03   0.02  -0.04    -0.11  -0.07   0.13
    13   1    -0.03   0.37   0.00    -0.03   0.49   0.00    -0.03   0.47   0.00
    14   1     0.40  -0.11   0.08    -0.41   0.10  -0.08    -0.43   0.11  -0.08
    15   1    -0.08  -0.11  -0.27    -0.00  -0.02  -0.02    -0.01  -0.03  -0.05
    16   1     0.16   0.02  -0.05     0.19   0.02  -0.06     0.01   0.00  -0.00
    17   1    -0.04  -0.17   0.02     0.03   0.15  -0.02    -0.04  -0.18   0.02
    18   1    -0.11   0.07  -0.13     0.03  -0.02   0.04     0.11  -0.07   0.13
    19   1    -0.08   0.11   0.27    -0.00   0.02   0.02     0.01  -0.03  -0.05
    20   1    -0.03  -0.37  -0.00    -0.03  -0.49  -0.00     0.03   0.47   0.00
    21   1     0.40   0.11  -0.08    -0.41  -0.10   0.08     0.43   0.11  -0.08
    22  53    -0.00  -0.00  -0.00    -0.00   0.00  -0.00     0.00   0.00  -0.00
                     55                     56                     57
                      A                      A                      A
 Frequencies --   3168.5378              3169.6567              3174.4461
 Red. masses --      1.1048                 1.1042                 1.1045
 Frc consts  --      6.5350                 6.5364                 6.5578
 IR Inten    --      6.9376                15.2049                12.3461
  Atom  AN      X      Y      Z        X      Y      Z        X      Y      Z
     1   5     0.00  -0.00  -0.00    -0.00  -0.00  -0.00     0.00  -0.00   0.00
     2   8     0.00   0.00   0.00    -0.00  -0.00   0.00    -0.00   0.00  -0.00
     3   8     0.00  -0.00  -0.00     0.00  -0.00   0.00     0.00   0.00  -0.00
     4   6    -0.00  -0.00   0.00     0.00   0.00  -0.00     0.00  -0.00   0.00
     5   6    -0.00   0.00  -0.00    -0.00   0.00  -0.00    -0.00  -0.00   0.00
     6   6    -0.04  -0.05   0.03     0.05   0.03  -0.02     0.05  -0.04   0.02
     7   6     0.00   0.00   0.00    -0.01   0.02  -0.00     0.01  -0.01  -0.00
     8   6    -0.04   0.05  -0.03    -0.05   0.03  -0.02    -0.05  -0.04   0.02
     9   6     0.00  -0.00  -0.00     0.01   0.02  -0.00    -0.01  -0.01  -0.00
    10   1     0.20  -0.03   0.07    -0.31   0.04  -0.10    -0.45   0.04  -0.13
    11   1    -0.09   0.37  -0.04     0.06  -0.23   0.02    -0.10   0.49  -0.05
    12   1     0.32   0.21  -0.39    -0.31  -0.20   0.38     0.01  -0.00  -0.00
    13   1     0.00  -0.03  -0.00     0.01  -0.18   0.00    -0.01   0.12  -0.00
    14   1    -0.01   0.00  -0.00     0.13  -0.03   0.03    -0.07   0.02  -0.01
    15   1    -0.02  -0.02  -0.06    -0.01  -0.00  -0.01     0.01   0.01   0.03
    16   1     0.20   0.03  -0.07     0.31   0.04  -0.10     0.45   0.04  -0.13
    17   1    -0.09  -0.37   0.04    -0.06  -0.23   0.02     0.10   0.49  -0.05
    18   1     0.32  -0.21   0.39     0.31  -0.20   0.38    -0.01  -0.00  -0.00
    19   1    -0.02   0.02   0.06     0.01  -0.00  -0.01    -0.01   0.01   0.03
    20   1     0.00   0.03   0.00    -0.01  -0.18   0.00     0.01   0.12  -0.00
    21   1    -0.01  -0.00   0.00    -0.13  -0.03   0.03     0.07   0.02  -0.01
    22  53    -0.00  -0.00   0.00     0.00  -0.00   0.00    -0.00   0.00  -0.00
                     58                     59                     60
                      A                      A                      A
 Frequencies --   3175.3881              3188.3884              3188.6431
 Red. masses --      1.1042                 1.1035                 1.1034
 Frc consts  --      6.5596                 6.6096                 6.6100
 IR Inten    --     18.3015                 3.6420                13.1004
  Atom  AN      X      Y      Z        X      Y      Z        X      Y      Z
     1   5     0.00   0.00  -0.00     0.00   0.00  -0.00    -0.00   0.00  -0.00
     2   8     0.00  -0.00   0.00     0.00   0.00   0.00     0.00   0.00   0.00
     3   8     0.00   0.00  -0.00     0.00  -0.00  -0.00    -0.00   0.00   0.00
     4   6    -0.00   0.00   0.00    -0.00  -0.00  -0.00    -0.00  -0.00  -0.00
     5   6    -0.00  -0.00  -0.00    -0.00   0.00   0.00     0.00  -0.00  -0.00
     6   6    -0.05   0.03  -0.01    -0.00  -0.00   0.00    -0.00   0.01  -0.00
     7   6    -0.02   0.02  -0.00    -0.03  -0.03  -0.05    -0.03  -0.03  -0.05
     8   6    -0.05  -0.03   0.01    -0.00   0.00  -0.00     0.00   0.01  -0.00
     9   6    -0.02  -0.02   0.00    -0.03   0.03   0.05     0.03  -0.03  -0.05
    10   1     0.47  -0.04   0.14     0.01  -0.00   0.00     0.02  -0.00   0.01
    11   1     0.08  -0.40   0.04    -0.01   0.05  -0.00     0.01  -0.05   0.01
    12   1     0.05   0.04  -0.07     0.03   0.02  -0.04    -0.02  -0.01   0.03
    13   1     0.01  -0.18  -0.00    -0.02   0.24  -0.01    -0.02   0.25  -0.01
    14   1     0.17  -0.04   0.03     0.22  -0.06   0.04     0.21  -0.06   0.04
    15   1     0.00   0.01   0.02     0.15   0.21   0.56     0.15   0.21   0.56
    16   1     0.47   0.04  -0.14     0.01   0.00  -0.00    -0.02  -0.00   0.01
    17   1     0.08   0.40  -0.04    -0.01  -0.05   0.00    -0.01  -0.05   0.01
    18   1     0.05  -0.04   0.07     0.03  -0.02   0.04     0.02  -0.01   0.03
    19   1     0.00  -0.01  -0.02     0.15  -0.21  -0.56    -0.15   0.21   0.56
    20   1     0.01   0.18   0.00    -0.02  -0.24   0.01     0.02   0.25  -0.01
    21   1     0.17   0.04  -0.03     0.22   0.06  -0.04    -0.21  -0.06   0.04
    22  53    -0.00  -0.00   0.00    -0.00   0.00   0.00     0.00   0.00   0.00

 -------------------
 - Thermochemistry -
 -------------------
 Temperature   298.150 Kelvin.  Pressure   1.00000 Atm.
 Atom     1 has atomic number  5 and mass  11.00931
 Atom     2 has atomic number  8 and mass  15.99491
 Atom     3 has atomic number  8 and mass  15.99491
 Atom     4 has atomic number  6 and mass  12.00000
 Atom     5 has atomic number  6 and mass  12.00000
 Atom     6 has atomic number  6 and mass  12.00000
 Atom     7 has atomic number  6 and mass  12.00000
 Atom     8 has atomic number  6 and mass  12.00000
 Atom     9 has atomic number  6 and mass  12.00000
 Atom    10 has atomic number  1 and mass   1.00783
 Atom    11 has atomic number  1 and mass   1.00783
 Atom    12 has atomic number  1 and mass   1.00783
 Atom    13 has atomic number  1 and mass   1.00783
 Atom    14 has atomic number  1 and mass   1.00783
 Atom    15 has atomic number  1 and mass   1.00783
 Atom    16 has atomic number  1 and mass   1.00783
 Atom    17 has atomic number  1 and mass   1.00783
 Atom    18 has atomic number  1 and mass   1.00783
 Atom    19 has atomic number  1 and mass   1.00783
 Atom    20 has atomic number  1 and mass   1.00783
 Atom    21 has atomic number  1 and mass   1.00783
 Atom    22 has atomic number 53 and mass 126.90040
 Molecular mass:   253.99344 amu.
 Principal axes and moments of inertia in atomic units:
                           1         2         3
     Eigenvalues --  1025.936004472.760334747.95749
           X            1.00000  -0.00000  -0.00000
           Y            0.00000   0.99921   0.03969
           Z            0.00000  -0.03969   0.99921
 This molecule is an asymmetric top.
 Rotational symmetry number  1.
 Warning -- assumption of classical behavior for rotation
           may cause significant error
 Rotational temperatures (Kelvin)      0.08442     0.01936     0.01824
 Rotational constants (GHZ):           1.75912     0.40350     0.38011
 Zero-point vibrational energy     478669.2 (Joules/Mol)
                                  114.40469 (Kcal/Mol)
 Warning -- explicit consideration of  18 degrees of freedom as
           vibrations may cause significant error
 Vibrational temperatures:    106.56   144.66   204.96   305.80   337.79
          (Kelvin)            347.96   407.92   430.53   445.20   457.79
                              506.58   530.22   583.08   593.08   705.96
                              764.78   844.23   858.12   988.47  1157.08
                             1238.22  1274.60  1350.59  1351.28  1398.69
                             1415.88  1436.91  1453.17  1638.35  1693.87
                             1725.09  1804.43  1810.87  1844.41  1882.08
                             1995.28  2006.29  2008.95  2016.30  2019.00
                             2071.92  2084.37  2087.22  2095.35  2113.05
                             2123.62  2127.22  2145.46  4412.25  4413.44
                             4420.07  4422.93  4554.41  4554.64  4558.82
                             4560.43  4567.32  4568.68  4587.38  4587.75
 
 Zero-point correction=                           0.182315 (Hartree/Particle)
 Thermal correction to Energy=                    0.193355
 Thermal correction to Enthalpy=                  0.194299
 Thermal correction to Gibbs Free Energy=         0.145025
 Sum of electronic and zero-point Energies=           -708.080384
 Sum of electronic and thermal Energies=              -708.069345
 Sum of electronic and thermal Enthalpies=            -708.068401
 Sum of electronic and thermal Free Energies=         -708.117675
 
                     E (Thermal)             CV                S
                      KCal/Mol        Cal/Mol-Kelvin    Cal/Mol-Kelvin
 Total                  121.332             41.963            103.706
 Electronic               0.000              0.000              0.000
 Translational            0.889              2.981             42.497
 Rotational               0.889              2.981             31.455
 Vibrational            119.554             36.001             29.755
 Vibration     1          0.599              1.966              4.042
 Vibration     2          0.604              1.949              3.444
 Vibration     3          0.616              1.911              2.771
 Vibration     4          0.644              1.822              2.022
 Vibration     5          0.655              1.788              1.842
 Vibration     6          0.658              1.776              1.789
 Vibration     7          0.682              1.704              1.512
 Vibration     8          0.692              1.675              1.421
 Vibration     9          0.699              1.656              1.365
 Vibration    10          0.705              1.639              1.319
 Vibration    11          0.729              1.571              1.157
 Vibration    12          0.741              1.537              1.086
 Vibration    13          0.770              1.459              0.944
 Vibration    14          0.776              1.444              0.919
 Vibration    15          0.846              1.271              0.682
 Vibration    16          0.887              1.180              0.584
 Vibration    17          0.944              1.060              0.473
 Vibration    18          0.954              1.039              0.456
                       Q            Log10(Q)             Ln(Q)
 Total Bot       0.196508D-66        -66.706620       -153.597669
 Total V=0       0.142103D+18         17.152602         39.495327
 Vib (Bot)       0.739172D-81        -81.131255       -186.811617
 Vib (Bot)    1  0.278300D+01          0.444514          1.023531
 Vib (Bot)    2  0.204099D+01          0.309840          0.713434
 Vib (Bot)    3  0.142644D+01          0.154255          0.355185
 Vib (Bot)    4  0.933512D+00         -0.029880         -0.068801
 Vib (Bot)    5  0.837141D+00         -0.077201         -0.177763
 Vib (Bot)    6  0.810086D+00         -0.091469         -0.210614
 Vib (Bot)    7  0.676855D+00         -0.169505         -0.390299
 Vib (Bot)    8  0.635815D+00         -0.196669         -0.452848
 Vib (Bot)    9  0.611310D+00         -0.213739         -0.492152
 Vib (Bot)   10  0.591441D+00         -0.228089         -0.525194
 Vib (Bot)   11  0.523297D+00         -0.281252         -0.647606
 Vib (Bot)   12  0.494523D+00         -0.305813         -0.704161
 Vib (Bot)   13  0.438110D+00         -0.358416         -0.825284
 Vib (Bot)   14  0.428494D+00         -0.368056         -0.847479
 Vib (Bot)   15  0.337723D+00         -0.471439         -1.085528
 Vib (Bot)   16  0.300442D+00         -0.522240         -1.202502
 Vib (Bot)   17  0.257935D+00         -0.588489         -1.355046
 Vib (Bot)   18  0.251280D+00         -0.599841         -1.381186
 Vib (V=0)       0.534525D+03          2.727968          6.281378
 Vib (V=0)    1  0.332756D+01          0.522126          1.202240
 Vib (V=0)    2  0.260134D+01          0.415197          0.956027
 Vib (V=0)    3  0.201154D+01          0.303528          0.698899
 Vib (V=0)    4  0.155898D+01          0.192841          0.444034
 Vib (V=0)    5  0.147509D+01          0.168819          0.388721
 Vib (V=0)    6  0.145197D+01          0.161957          0.372919
 Vib (V=0)    7  0.134151D+01          0.127593          0.293793
 Vib (V=0)    8  0.130886D+01          0.116894          0.269159
 Vib (V=0)    9  0.128975D+01          0.110504          0.254446
 Vib (V=0)   10  0.127447D+01          0.105329          0.242530
 Vib (V=0)   11  0.122377D+01          0.087699          0.201934
 Vib (V=0)   12  0.120324D+01          0.080354          0.185022
 Vib (V=0)   13  0.116479D+01          0.066246          0.152538
 Vib (V=0)   14  0.115849D+01          0.063892          0.147116
 Vib (V=0)   15  0.110337D+01          0.042722          0.098370
 Vib (V=0)   16  0.108332D+01          0.034758          0.080033
 Vib (V=0)   17  0.106261D+01          0.026374          0.060729
 Vib (V=0)   18  0.105959D+01          0.025138          0.057883
 Electronic      0.100000D+01          0.000000          0.000000
 Translational   0.159106D+09          8.201688         18.885084
 Rotational      0.167089D+07          6.222947         14.328865
 ***** Axes restored to original set *****
 -------------------------------------------------------------------
 Center     Atomic                   Forces (Hartrees/Bohr)
 Number     Number              X              Y              Z
 -------------------------------------------------------------------
      1        5          -0.000000867    0.000067533    0.000000589
      2        8           0.000011066   -0.000027181    0.000027810
      3        8          -0.000010360   -0.000027271   -0.000028229
      4        6          -0.000038305    0.000014215   -0.000031816
      5        6           0.000038254    0.000014050    0.000031876
      6        6          -0.000001521   -0.000012147   -0.000000048
      7        6           0.000001841   -0.000002522    0.000001495
      8        6           0.000001404   -0.000011945    0.000000008
      9        6          -0.000001723   -0.000002502   -0.000001411
     10        1           0.000003773   -0.000000229    0.000001227
     11        1          -0.000001833   -0.000000099    0.000003677
     12        1          -0.000004178    0.000000250   -0.000001883
     13        1          -0.000002182   -0.000000147    0.000001948
     14        1          -0.000001612   -0.000000607    0.000001421
     15        1          -0.000007335    0.000002803   -0.000001695
     16        1          -0.000003761   -0.000000197   -0.000001287
     17        1           0.000001789   -0.000000110   -0.000003667
     18        1           0.000004165    0.000000255    0.000001821
     19        1           0.000007429    0.000002810    0.000001677
     20        1           0.000002183   -0.000000129   -0.000001958
     21        1           0.000001607   -0.000000619   -0.000001434
     22       53           0.000000166   -0.000016211   -0.000000121
 -------------------------------------------------------------------
 Cartesian Forces:  Max     0.000067533 RMS     0.000014589
 FormGI is forming the generalized inverse of G from B-inverse, IUseBI=4.
 Leave Link  716 at Thu Apr 25 01:56:38 2024, MaxMem= 10737418240 cpu:               1.2 elap:               0.0
 (Enter /lustre/home/acct-chenxiangyang/chenxiangyang-user1/software/g16/l103.exe)

 GradGradGradGradGradGradGradGradGradGradGradGradGradGradGradGradGradGrad
 Berny optimization.
 Red2BG is reusing G-inverse.
 Internal  Forces:  Max     0.000046073 RMS     0.000007328
 Search for a local minimum.
 Step number   1 out of a maximum of    2
 All quantities printed in internal units (Hartrees-Bohrs-Radians)
 Second derivative matrix not updated -- analytic derivatives used.
 ITU=  0
     Eigenvalues ---    0.00279   0.00286   0.00403   0.00472   0.00657
     Eigenvalues ---    0.01453   0.03392   0.03996   0.04175   0.04203
     Eigenvalues ---    0.04275   0.04362   0.04364   0.04409   0.04469
     Eigenvalues ---    0.04615   0.04751   0.06156   0.07200   0.07741
     Eigenvalues ---    0.09243   0.09580   0.10767   0.11860   0.11980
     Eigenvalues ---    0.12154   0.12414   0.12807   0.13923   0.14008
     Eigenvalues ---    0.14180   0.14374   0.14509   0.14682   0.15358
     Eigenvalues ---    0.15580   0.18708   0.20406   0.21674   0.24859
     Eigenvalues ---    0.26605   0.29423   0.29890   0.30659   0.33071
     Eigenvalues ---    0.34441   0.34672   0.34717   0.34812   0.34843
     Eigenvalues ---    0.34876   0.34928   0.34950   0.34995   0.35038
     Eigenvalues ---    0.35101   0.35590   0.35644   0.36983   0.41832
 Angle between quadratic step and forces=  64.98 degrees.
 Linear search not attempted -- first point.
 Iteration  1 RMS(Cart)=  0.00010797 RMS(Int)=  0.00000001
 Iteration  2 RMS(Cart)=  0.00000001 RMS(Int)=  0.00000000
 ITry= 1 IFail=0 DXMaxC= 3.37D-04 DCOld= 1.00D+10 DXMaxT= 3.00D-01 DXLimC= 3.00D+00 Rises=F
 Variable       Old X    -DE/DX   Delta X   Delta X   Delta X     New X
                                 (Linear)    (Quad)   (Total)
    R1        2.55832   0.00003   0.00000   0.00009   0.00009   2.55841
    R2        2.55832   0.00003   0.00000   0.00009   0.00009   2.55841
    R3        4.02349  -0.00002   0.00000  -0.00014  -0.00014   4.02334
    R4        2.73566   0.00000   0.00000  -0.00001  -0.00001   2.73565
    R5        2.73566   0.00000   0.00000  -0.00001  -0.00001   2.73565
    R6        2.96703  -0.00005   0.00000  -0.00024  -0.00024   2.96679
    R7        2.87746   0.00000   0.00000   0.00001   0.00001   2.87748
    R8        2.86297   0.00000   0.00000   0.00003   0.00003   2.86300
    R9        2.87746   0.00000   0.00000   0.00001   0.00001   2.87748
   R10        2.86297   0.00000   0.00000   0.00003   0.00003   2.86300
   R11        2.07718   0.00000   0.00000  -0.00000  -0.00000   2.07718
   R12        2.07700  -0.00000   0.00000  -0.00000  -0.00000   2.07700
   R13        2.07824   0.00000   0.00000   0.00001   0.00001   2.07825
   R14        2.07733   0.00000   0.00000  -0.00000  -0.00000   2.07733
   R15        2.07935   0.00000   0.00000  -0.00000  -0.00000   2.07935
   R16        2.07323   0.00000   0.00000   0.00001   0.00001   2.07324
   R17        2.07718   0.00000   0.00000  -0.00000  -0.00000   2.07718
   R18        2.07700  -0.00000   0.00000  -0.00000  -0.00000   2.07700
   R19        2.07824   0.00000   0.00000   0.00001   0.00001   2.07825
   R20        2.07323   0.00000   0.00000   0.00001   0.00001   2.07324
   R21        2.07733   0.00000   0.00000  -0.00000  -0.00000   2.07733
   R22        2.07935   0.00000   0.00000  -0.00000  -0.00000   2.07935
    A1        2.00637  -0.00002   0.00000  -0.00010  -0.00010   2.00627
    A2        2.13841   0.00001   0.00000   0.00005   0.00005   2.13846
    A3        2.13841   0.00001   0.00000   0.00005   0.00005   2.13846
    A4        1.85557  -0.00000   0.00000  -0.00001  -0.00001   1.85557
    A5        1.85558  -0.00000   0.00000  -0.00001  -0.00001   1.85557
    A6        1.78184   0.00001   0.00000   0.00004   0.00004   1.78188
    A7        1.86086   0.00000   0.00000   0.00005   0.00005   1.86091
    A8        1.89821  -0.00001   0.00000  -0.00005  -0.00005   1.89816
    A9        1.97318  -0.00001   0.00000  -0.00001  -0.00001   1.97316
   A10        2.00576  -0.00000   0.00000   0.00000   0.00000   2.00577
   A11        1.93097   0.00001   0.00000  -0.00002  -0.00002   1.93095
   A12        1.78184   0.00001   0.00000   0.00004   0.00004   1.78188
   A13        1.86086   0.00000   0.00000   0.00005   0.00005   1.86091
   A14        1.89821  -0.00001   0.00000  -0.00006  -0.00006   1.89816
   A15        1.97317  -0.00001   0.00000  -0.00001  -0.00001   1.97316
   A16        2.00577  -0.00000   0.00000   0.00000   0.00000   2.00577
   A17        1.93097   0.00001   0.00000  -0.00002  -0.00002   1.93095
   A18        1.94800   0.00001   0.00000   0.00003   0.00003   1.94803
   A19        1.89852  -0.00000   0.00000  -0.00001  -0.00001   1.89851
   A20        1.94240  -0.00001   0.00000  -0.00003  -0.00003   1.94236
   A21        1.89340  -0.00000   0.00000   0.00000   0.00000   1.89340
   A22        1.89554  -0.00000   0.00000  -0.00001  -0.00001   1.89553
   A23        1.88432   0.00000   0.00000   0.00003   0.00003   1.88436
   A24        1.91287   0.00000   0.00000   0.00000   0.00000   1.91287
   A25        1.93057   0.00000   0.00000   0.00003   0.00003   1.93060
   A26        1.94838  -0.00001   0.00000  -0.00005  -0.00005   1.94833
   A27        1.88711  -0.00000   0.00000   0.00001   0.00001   1.88712
   A28        1.88431   0.00000   0.00000   0.00001   0.00001   1.88433
   A29        1.89900   0.00000   0.00000  -0.00000  -0.00000   1.89899
   A30        1.94800   0.00001   0.00000   0.00003   0.00003   1.94803
   A31        1.89852  -0.00000   0.00000  -0.00001  -0.00001   1.89851
   A32        1.94240  -0.00001   0.00000  -0.00003  -0.00003   1.94236
   A33        1.89340  -0.00000   0.00000   0.00000   0.00000   1.89340
   A34        1.89554  -0.00000   0.00000  -0.00001  -0.00001   1.89553
   A35        1.88432   0.00000   0.00000   0.00003   0.00003   1.88436
   A36        1.94838  -0.00001   0.00000  -0.00005  -0.00005   1.94833
   A37        1.91287   0.00000   0.00000   0.00000   0.00000   1.91287
   A38        1.93057   0.00000   0.00000   0.00003   0.00003   1.93060
   A39        1.88431   0.00000   0.00000   0.00001   0.00001   1.88433
   A40        1.89900   0.00000   0.00000  -0.00000  -0.00000   1.89899
   A41        1.88711  -0.00000   0.00000   0.00001   0.00001   1.88712
    D1        0.17135  -0.00000   0.00000   0.00001   0.00001   0.17136
    D2       -2.97025  -0.00000   0.00000   0.00002   0.00002  -2.97023
    D3        0.17134  -0.00000   0.00000   0.00002   0.00002   0.17136
    D4       -2.97024  -0.00000   0.00000   0.00001   0.00001  -2.97023
    D5       -0.40441  -0.00000   0.00000  -0.00006  -0.00006  -0.40447
    D6        1.66921  -0.00001   0.00000  -0.00004  -0.00004   1.66917
    D7       -2.53131  -0.00000   0.00000  -0.00006  -0.00006  -2.53137
    D8       -0.40440  -0.00000   0.00000  -0.00007  -0.00007  -0.40447
    D9        1.66922  -0.00001   0.00000  -0.00004  -0.00004   1.66917
   D10       -2.53130  -0.00000   0.00000  -0.00007  -0.00007  -2.53137
   D11        0.49163   0.00001   0.00000   0.00008   0.00008   0.49172
   D12       -1.50060  -0.00000   0.00000   0.00001   0.00001  -1.50058
   D13        2.54291  -0.00000   0.00000   0.00004   0.00004   2.54296
   D14       -1.50060  -0.00000   0.00000   0.00001   0.00001  -1.50058
   D15        2.79036  -0.00001   0.00000  -0.00006  -0.00006   2.79030
   D16        0.55069  -0.00001   0.00000  -0.00003  -0.00003   0.55066
   D17        2.54291   0.00000   0.00000   0.00004   0.00004   2.54296
   D18        0.55068  -0.00001   0.00000  -0.00003  -0.00003   0.55066
   D19       -1.68899  -0.00000   0.00000   0.00000   0.00000  -1.68899
   D20        3.06800  -0.00001   0.00000  -0.00025  -0.00025   3.06776
   D21        0.97951  -0.00001   0.00000  -0.00025  -0.00025   0.97926
   D22       -1.09434  -0.00001   0.00000  -0.00026  -0.00026  -1.09461
   D23       -1.27116   0.00000   0.00000  -0.00018  -0.00018  -1.27134
   D24        2.92354   0.00000   0.00000  -0.00019  -0.00019   2.92335
   D25        0.84968   0.00000   0.00000  -0.00019  -0.00019   0.84948
   D26        1.00674  -0.00000   0.00000  -0.00020  -0.00020   1.00654
   D27       -1.08175  -0.00000   0.00000  -0.00021  -0.00021  -1.08195
   D28        3.12758  -0.00000   0.00000  -0.00021  -0.00021   3.12737
   D29       -1.14512   0.00000   0.00000   0.00006   0.00006  -1.14506
   D30        3.05894   0.00000   0.00000   0.00003   0.00003   3.05897
   D31        0.94167   0.00000   0.00000   0.00005   0.00005   0.94173
   D32       -3.12936  -0.00000   0.00000   0.00005   0.00005  -3.12931
   D33        1.07470  -0.00001   0.00000   0.00002   0.00002   1.07472
   D34       -1.04256  -0.00000   0.00000   0.00004   0.00004  -1.04253
   D35        0.89320   0.00000   0.00000   0.00008   0.00008   0.89328
   D36       -1.18593   0.00000   0.00000   0.00005   0.00005  -1.18588
   D37        2.97999   0.00000   0.00000   0.00007   0.00007   2.98006
   D38        3.06800  -0.00001   0.00000  -0.00024  -0.00024   3.06776
   D39        0.97951  -0.00001   0.00000  -0.00025  -0.00025   0.97926
   D40       -1.09435  -0.00001   0.00000  -0.00026  -0.00026  -1.09461
   D41       -1.27116   0.00000   0.00000  -0.00018  -0.00018  -1.27134
   D42        2.92354   0.00000   0.00000  -0.00019  -0.00019   2.92335
   D43        0.84968   0.00000   0.00000  -0.00019  -0.00019   0.84948
   D44        1.00674  -0.00000   0.00000  -0.00020  -0.00020   1.00654
   D45       -1.08175  -0.00000   0.00000  -0.00021  -0.00021  -1.08195
   D46        3.12758  -0.00000   0.00000  -0.00021  -0.00021   3.12737
   D47        0.94167   0.00000   0.00000   0.00005   0.00005   0.94173
   D48       -1.14512   0.00000   0.00000   0.00007   0.00007  -1.14506
   D49        3.05894   0.00000   0.00000   0.00003   0.00003   3.05897
   D50       -1.04257  -0.00000   0.00000   0.00004   0.00004  -1.04253
   D51       -3.12936  -0.00000   0.00000   0.00005   0.00005  -3.12931
   D52        1.07470  -0.00000   0.00000   0.00002   0.00002   1.07472
   D53        2.97999   0.00000   0.00000   0.00007   0.00007   2.98006
   D54        0.89319   0.00000   0.00000   0.00008   0.00008   0.89328
   D55       -1.18593   0.00000   0.00000   0.00005   0.00005  -1.18588
         Item               Value     Threshold  Converged?
 Maximum Force            0.000046     0.000450     YES
 RMS     Force            0.000007     0.000300     YES
 Maximum Displacement     0.000337     0.001800     YES
 RMS     Displacement     0.000108     0.001200     YES
 Predicted change in Energy=-1.745885D-08
 Optimization completed.
    -- Stationary point found.
                           ----------------------------
                           !   Optimized Parameters   !
                           ! (Angstroms and Degrees)  !
 --------------------------                            --------------------------
 ! Name  Definition              Value          Derivative Info.                !
 --------------------------------------------------------------------------------
 ! R1    R(1,2)                  1.3538         -DE/DX =    0.0                 !
 ! R2    R(1,3)                  1.3538         -DE/DX =    0.0                 !
 ! R3    R(1,22)                 2.1291         -DE/DX =    0.0                 !
 ! R4    R(2,4)                  1.4476         -DE/DX =    0.0                 !
 ! R5    R(3,5)                  1.4476         -DE/DX =    0.0                 !
 ! R6    R(4,5)                  1.5701         -DE/DX =    0.0                 !
 ! R7    R(4,6)                  1.5227         -DE/DX =    0.0                 !
 ! R8    R(4,7)                  1.515          -DE/DX =    0.0                 !
 ! R9    R(5,8)                  1.5227         -DE/DX =    0.0                 !
 ! R10   R(5,9)                  1.515          -DE/DX =    0.0                 !
 ! R11   R(6,10)                 1.0992         -DE/DX =    0.0                 !
 ! R12   R(6,11)                 1.0991         -DE/DX =    0.0                 !
 ! R13   R(6,12)                 1.0998         -DE/DX =    0.0                 !
 ! R14   R(7,13)                 1.0993         -DE/DX =    0.0                 !
 ! R15   R(7,14)                 1.1003         -DE/DX =    0.0                 !
 ! R16   R(7,15)                 1.0971         -DE/DX =    0.0                 !
 ! R17   R(8,16)                 1.0992         -DE/DX =    0.0                 !
 ! R18   R(8,17)                 1.0991         -DE/DX =    0.0                 !
 ! R19   R(8,18)                 1.0998         -DE/DX =    0.0                 !
 ! R20   R(9,19)                 1.0971         -DE/DX =    0.0                 !
 ! R21   R(9,20)                 1.0993         -DE/DX =    0.0                 !
 ! R22   R(9,21)                 1.1003         -DE/DX =    0.0                 !
 ! A1    A(2,1,3)              114.9567         -DE/DX =    0.0                 !
 ! A2    A(2,1,22)             122.5217         -DE/DX =    0.0                 !
 ! A3    A(3,1,22)             122.5217         -DE/DX =    0.0                 !
 ! A4    A(1,2,4)              106.3166         -DE/DX =    0.0                 !
 ! A5    A(1,3,5)              106.3166         -DE/DX =    0.0                 !
 ! A6    A(2,4,5)              102.0919         -DE/DX =    0.0                 !
 ! A7    A(2,4,6)              106.6193         -DE/DX =    0.0                 !
 ! A8    A(2,4,7)              108.7596         -DE/DX =    0.0                 !
 ! A9    A(5,4,6)              113.0547         -DE/DX =    0.0                 !
 ! A10   A(5,4,7)              114.9218         -DE/DX =    0.0                 !
 ! A11   A(6,4,7)              110.6362         -DE/DX =    0.0                 !
 ! A12   A(3,5,4)              102.092          -DE/DX =    0.0                 !
 ! A13   A(3,5,8)              106.6193         -DE/DX =    0.0                 !
 ! A14   A(3,5,9)              108.7596         -DE/DX =    0.0                 !
 ! A15   A(4,5,8)              113.0546         -DE/DX =    0.0                 !
 ! A16   A(4,5,9)              114.9219         -DE/DX =    0.0                 !
 ! A17   A(8,5,9)              110.6362         -DE/DX =    0.0                 !
 ! A18   A(4,6,10)             111.6124         -DE/DX =    0.0                 !
 ! A19   A(4,6,11)             108.7774         -DE/DX =    0.0                 !
 ! A20   A(4,6,12)             111.2911         -DE/DX =    0.0                 !
 ! A21   A(10,6,11)            108.4836         -DE/DX =    0.0                 !
 ! A22   A(10,6,12)            108.6063         -DE/DX =    0.0                 !
 ! A23   A(11,6,12)            107.9639         -DE/DX =    0.0                 !
 ! A24   A(4,7,13)             109.5994         -DE/DX =    0.0                 !
 ! A25   A(4,7,14)             110.6137         -DE/DX =    0.0                 !
 ! A26   A(4,7,15)             111.634          -DE/DX =    0.0                 !
 ! A27   A(13,7,14)            108.1234         -DE/DX =    0.0                 !
 ! A28   A(13,7,15)            107.9631         -DE/DX =    0.0                 !
 ! A29   A(14,7,15)            108.8044         -DE/DX =    0.0                 !
 ! A30   A(5,8,16)             111.6124         -DE/DX =    0.0                 !
 ! A31   A(5,8,17)             108.7774         -DE/DX =    0.0                 !
 ! A32   A(5,8,18)             111.2911         -DE/DX =    0.0                 !
 ! A33   A(16,8,17)            108.4836         -DE/DX =    0.0                 !
 ! A34   A(16,8,18)            108.6063         -DE/DX =    0.0                 !
 ! A35   A(17,8,18)            107.9639         -DE/DX =    0.0                 !
 ! A36   A(5,9,19)             111.634          -DE/DX =    0.0                 !
 ! A37   A(5,9,20)             109.5994         -DE/DX =    0.0                 !
 ! A38   A(5,9,21)             110.6137         -DE/DX =    0.0                 !
 ! A39   A(19,9,20)            107.9631         -DE/DX =    0.0                 !
 ! A40   A(19,9,21)            108.8044         -DE/DX =    0.0                 !
 ! A41   A(20,9,21)            108.1234         -DE/DX =    0.0                 !
 ! D1    D(3,1,2,4)              9.8179         -DE/DX =    0.0                 !
 ! D2    D(22,1,2,4)          -170.1828         -DE/DX =    0.0                 !
 ! D3    D(2,1,3,5)              9.8171         -DE/DX =    0.0                 !
 ! D4    D(22,1,3,5)          -170.1822         -DE/DX =    0.0                 !
 ! D5    D(1,2,4,5)            -23.1708         -DE/DX =    0.0                 !
 ! D6    D(1,2,4,6)             95.6386         -DE/DX =    0.0                 !
 ! D7    D(1,2,4,7)           -145.0334         -DE/DX =    0.0                 !
 ! D8    D(1,3,5,4)            -23.1704         -DE/DX =    0.0                 !
 ! D9    D(1,3,5,8)             95.639          -DE/DX =    0.0                 !
 ! D10   D(1,3,5,9)           -145.0331         -DE/DX =    0.0                 !
 ! D11   D(2,4,5,3)             28.1685         -DE/DX =    0.0                 !
 ! D12   D(2,4,5,8)            -85.9778         -DE/DX =    0.0                 !
 ! D13   D(2,4,5,9)            145.6983         -DE/DX =    0.0                 !
 ! D14   D(6,4,5,3)            -85.9778         -DE/DX =    0.0                 !
 ! D15   D(6,4,5,8)            159.8759         -DE/DX =    0.0                 !
 ! D16   D(6,4,5,9)             31.552          -DE/DX =    0.0                 !
 ! D17   D(7,4,5,3)            145.6982         -DE/DX =    0.0                 !
 ! D18   D(7,4,5,8)             31.5519         -DE/DX =    0.0                 !
 ! D19   D(7,4,5,9)            -96.772          -DE/DX =    0.0                 !
 ! D20   D(2,4,6,10)           175.7835         -DE/DX =    0.0                 !
 ! D21   D(2,4,6,11)            56.1221         -DE/DX =    0.0                 !
 ! D22   D(2,4,6,12)           -62.7013         -DE/DX =    0.0                 !
 ! D23   D(5,4,6,10)           -72.8322         -DE/DX =    0.0                 !
 ! D24   D(5,4,6,11)           167.5064         -DE/DX =    0.0                 !
 ! D25   D(5,4,6,12)            48.683          -DE/DX =    0.0                 !
 ! D26   D(7,4,6,10)            57.682          -DE/DX =    0.0                 !
 ! D27   D(7,4,6,11)           -61.9794         -DE/DX =    0.0                 !
 ! D28   D(7,4,6,12)           179.1972         -DE/DX =    0.0                 !
 ! D29   D(2,4,7,13)           -65.6106         -DE/DX =    0.0                 !
 ! D30   D(2,4,7,14)           175.2643         -DE/DX =    0.0                 !
 ! D31   D(2,4,7,15)            53.954          -DE/DX =    0.0                 !
 ! D32   D(5,4,7,13)          -179.299          -DE/DX =    0.0                 !
 ! D33   D(5,4,7,14)            61.5759         -DE/DX =    0.0                 !
 ! D34   D(5,4,7,15)           -59.7344         -DE/DX =    0.0                 !
 ! D35   D(6,4,7,13)            51.1764         -DE/DX =    0.0                 !
 ! D36   D(6,4,7,14)           -67.9488         -DE/DX =    0.0                 !
 ! D37   D(6,4,7,15)           170.741          -DE/DX =    0.0                 !
 ! D38   D(3,5,8,16)           175.7835         -DE/DX =    0.0                 !
 ! D39   D(3,5,8,17)            56.122          -DE/DX =    0.0                 !
 ! D40   D(3,5,8,18)           -62.7014         -DE/DX =    0.0                 !
 ! D41   D(4,5,8,16)           -72.8322         -DE/DX =    0.0                 !
 ! D42   D(4,5,8,17)           167.5064         -DE/DX =    0.0                 !
 ! D43   D(4,5,8,18)            48.6829         -DE/DX =    0.0                 !
 ! D44   D(9,5,8,16)            57.682          -DE/DX =    0.0                 !
 ! D45   D(9,5,8,17)           -61.9795         -DE/DX =    0.0                 !
 ! D46   D(9,5,8,18)           179.1971         -DE/DX =    0.0                 !
 ! D47   D(3,5,9,19)            53.9539         -DE/DX =    0.0                 !
 ! D48   D(3,5,9,20)           -65.6107         -DE/DX =    0.0                 !
 ! D49   D(3,5,9,21)           175.2641         -DE/DX =    0.0                 !
 ! D50   D(4,5,9,19)           -59.7346         -DE/DX =    0.0                 !
 ! D51   D(4,5,9,20)          -179.2992         -DE/DX =    0.0                 !
 ! D52   D(4,5,9,21)            61.5756         -DE/DX =    0.0                 !
 ! D53   D(8,5,9,19)           170.7409         -DE/DX =    0.0                 !
 ! D54   D(8,5,9,20)            51.1763         -DE/DX =    0.0                 !
 ! D55   D(8,5,9,21)           -67.9489         -DE/DX =    0.0                 !
 --------------------------------------------------------------------------------
 GradGradGradGradGradGradGradGradGradGradGradGradGradGradGradGradGradGrad

 Leave Link  103 at Thu Apr 25 01:56:39 2024, MaxMem= 10737418240 cpu:               1.8 elap:               0.1
 (Enter /lustre/home/acct-chenxiangyang/chenxiangyang-user1/software/g16/l9999.exe)

 ----------------------------------------------------------------------

 Electric dipole moment (input orientation):
 (Debye = 10**-18 statcoulomb cm , SI units = C m)
                  (au)            (Debye)         (10**-30 SI)
   Tot        0.162591D+01      0.413265D+01      0.137851D+02
   x         -0.300343D-04     -0.763396D-04     -0.254642D-03
   y         -0.162591D+01     -0.413265D+01     -0.137851D+02
   z         -0.742559D-04     -0.188740D-03     -0.629568D-03

 Dipole polarizability, Alpha (input orientation).
 (esu units = cm**3 , SI units = C**2 m**2 J**-1)
 Alpha(0;0):
               (au)            (10**-24 esu)      (10**-40 SI)
   iso        0.104050D+03      0.154186D+02      0.171555D+02
   aniso      0.435486D+02      0.645323D+01      0.718019D+01
   xx         0.919300D+02      0.136226D+02      0.151572D+02
   yx         0.674150D-03      0.998988D-04      0.111152D-03
   yy         0.132852D+03      0.196866D+02      0.219043D+02
   zx         0.218697D+01      0.324075D+00      0.360583D+00
   zy         0.204909D-02      0.303644D-03      0.337849D-03
   zz         0.873674D+02      0.129465D+02      0.144049D+02

 ----------------------------------------------------------------------

 Dipole orientation:
     5         -0.15041796         -0.00000613          0.11896624
     8          1.15017576          1.72095803          1.49436635
     8         -1.45103174         -1.72095809          1.49436290
     6          1.05947418          0.85845588          4.08891412
     6         -1.36033978         -0.85845200          4.08890980
     6          3.48701440         -0.61560504          4.55150207
     6          0.92010461          3.13969370          5.81319106
     6         -3.78787960          0.61561298          4.55148693
     6         -1.22098095         -3.13968706          5.81319148
     1          3.64534551         -1.22738477          6.53022111
     1          5.10642736          0.60727018          4.10876410
     1          3.59654464         -2.29216184          3.32829353
     1          2.68103618          4.23201908          5.66736368
     1          0.68815919          2.54784093          7.79298842
     1         -0.65224780          4.39011288          5.30090335
     1         -3.94621784          1.22739463          6.53020489
     1         -5.40729225         -0.60726048          4.10874315
     1         -3.89740241          2.29216914          3.32827674
     1          0.35136872         -4.39011193          5.30090960
     1         -2.98191544         -4.23200751          5.66736279
     1         -0.98903790         -2.54783079          7.79298807
    53         -0.15042250          0.00000077         -3.90452238

 Electric dipole moment (dipole orientation):
 (Debye = 10**-18 statcoulomb cm , SI units = C m)
                  (au)            (Debye)         (10**-30 SI)
   Tot        0.162591D+01      0.413265D+01      0.137851D+02
   x          0.000000D+00      0.000000D+00      0.000000D+00
   y          0.000000D+00      0.000000D+00      0.000000D+00
   z          0.162591D+01      0.413265D+01      0.137851D+02

 Dipole polarizability, Alpha (dipole orientation).
 (esu units = cm**3 , SI units = C**2 m**2 J**-1)
 Alpha(0;0):
               (au)            (10**-24 esu)      (10**-40 SI)
   iso        0.104050D+03      0.154186D+02      0.171555D+02
   aniso      0.435486D+02      0.645323D+01      0.718019D+01
   xx         0.919301D+02      0.136226D+02      0.151572D+02
   yx         0.218688D+01      0.324063D+00      0.360569D+00
   yy         0.873673D+02      0.129465D+02      0.144049D+02
   zx        -0.181081D-04     -0.268335D-05     -0.298563D-05
   zy        -0.121981D-04     -0.180757D-05     -0.201119D-05
   zz         0.132852D+03      0.196866D+02      0.219043D+02

 ----------------------------------------------------------------------
 1\1\GINC-CAS402\Freq\RPBE1PBE\def2SVP\C6H12B1I1O2\CHENXIANGYANG-USER1\
 25-Apr-2024\0\\#P Geom=AllCheck Guess=TCheck SCRF=Check GenChk RPBE1PB
 E/def2SVP Freq\\Title Card Required\\0,1\B,-0.0795989196,-0.0629527532
 ,-0.0000075911\O,0.6086153678,-0.7908374492,0.9106668958\O,-0.76785071
 5,-0.7907270145,-0.9107421008\C,0.5606012283,-2.1637912693,0.454186823
 6\C,-0.7198923871,-2.163723836,-0.4543853539\C,1.8452100828,-2.4085703
 803,-0.3258400714\C,0.4868108764,-3.0762931014,1.6613228565\C,-2.00451
 00719,-2.4085210057,0.325621331\C,-0.6461414253,-3.0761206368,-1.66160
 32657\H,1.9289819331,-3.4556501643,-0.6496262352\H,2.7021588889,-2.174
 3289175,0.3213041538\H,1.9031993334,-1.761236846,-1.2130050882\H,1.418
 6464784,-2.9991681889,2.2393772894\H,0.3640570782,-4.1239401759,1.3480
 777439\H,-0.3452494052,-2.8052169697,2.3230131981\H,-2.0883243805,-3.4
 556266905,0.6493128703\H,-2.8614500602,-2.1741857045,-0.3215005636\H,-
 2.0624714784,-1.7612654985,1.212845136\H,0.185927419,-2.8050178915,-2.
 3232718606\H,-1.5779757244,-2.9989078054,-2.2396480419\H,-0.5234275873
 ,-4.1238004412,-1.3484519946\I,-0.0795619914,2.0661857303,0.0000932985
 \\Version=ES64L-G16RevA.03\State=1-A\HF=-708.2626993\RMSD=4.181e-09\RM
 SF=1.459e-05\ZeroPoint=0.1823155\Thermal=0.1933546\Dipole=-0.00003,-1.
 6259115,-0.0000743\DipoleDeriv=0.6865795,0.0000229,0.3654177,0.0000135
 ,2.5632356,0.0000771,0.5053153,0.0000722,0.7160804,-0.5804084,0.233875
 ,-0.1867317,0.2929893,-1.6804257,0.1624611,-0.2265921,0.190798,-0.6304
 313,-0.5804313,-0.233907,-0.1867618,-0.293013,-1.6803723,-0.1625485,-0
 .2266247,-0.1908808,-0.6304624,0.3422496,-0.0158279,-0.0526666,-0.1753
 532,0.8301897,-0.1069313,-0.071529,0.1384058,0.3336641,0.342256,0.0158
 521,-0.0526605,0.1753799,0.8301858,0.1069782,-0.0715188,-0.1383577,0.3
 336616,-0.1280935,0.0356523,0.0728758,-0.009748,-0.0554242,0.0497914,0
 .0322428,-0.0268793,-0.0312918,-0.01427,0.0113694,0.0148031,0.0245539,
 -0.0570375,0.0323527,0.0287086,0.0768909,-0.075605,-0.1280941,-0.03565
 56,0.0728708,0.0097476,-0.0554221,-0.0497967,0.032245,0.0268757,-0.031
 2941,-0.014271,-0.0113724,0.0148005,-0.0245581,-0.0570265,-0.0323517,0
 .0287031,-0.0768905,-0.0756146,0.0597754,0.0026693,0.0034989,0.0235662
 ,-0.095958,-0.0480067,0.0306002,-0.0497912,0.0628552,-0.0348849,-0.009
 3035,-0.0421842,-0.0322687,0.0835351,-0.0249763,-0.0898972,-0.01916,0.
 0051577,0.0629686,0.0093249,0.002289,0.0045769,0.0191998,0.0805912,0.0
 282535,0.0692,-0.0426532,-0.0529032,0.0052821,-0.093892,-0.0254167,0.0
 73542,-0.0033181,-0.0545953,0.0291474,0.0227419,0.0747924,-0.027258,0.
 0002105,-0.0126529,-0.0877383,-0.0218348,-0.0112364,-0.0571261,0.03563
 6,-0.0124122,0.017319,0.0919902,0.0332703,0.0512105,-0.0199143,0.07535
 95,0.006311,0.0135138,0.0597744,-0.002676,0.0035006,-0.0235751,-0.0959
 655,0.0479921,0.0306002,0.0497756,0.062864,-0.0348835,0.0093122,-0.042
 1824,0.0322817,0.0835295,0.0249851,-0.0898937,0.0191708,0.0051618,0.06
 29682,-0.0093267,0.0022848,-0.0045813,0.0192145,-0.0805854,0.0282502,-
 0.0691953,-0.0426669,-0.0124142,-0.017325,0.0919894,-0.0332747,0.05121
 14,0.0199142,0.0753562,-0.0063107,0.0135144,-0.0529027,-0.0052687,-0.0
 938922,0.0254265,0.0735434,0.0033262,-0.0545939,-0.0291406,0.0227399,0
 .0747939,0.0272516,0.0002137,0.0126476,-0.0877469,0.0218237,-0.0112332
 ,0.0571155,0.0356431,-0.1201889,-0.0000099,0.0142264,-0.0000118,-0.725
 4805,-0.0000291,0.0120797,-0.0000305,-0.1032147\Polar=91.9299698,0.000
 6742,132.8518958,2.1869692,0.0020491,87.3674157\Quadrupole=-0.973012,3
 .7564441,-2.7834321,0.0001454,-1.2998399,0.0003248\PG=C01 [X(C6H12B1I1
 O2)]\NImag=0\\0.27029878,-0.00000454,0.49539901,0.21459448,0.00000029,
 0.37766648,-0.12757063,0.06779877,-0.11042847,0.21522030,0.08307320,-0
 .13474631,0.10562133,-0.08538512,0.38814124,-0.10660635,0.08720044,-0.
 18522900,0.16686676,-0.04881677,0.32269396,-0.12757837,-0.06778972,-0.
 11043942,-0.01029143,0.00855774,-0.04417274,0.21522887,-0.08306468,-0.
 13472272,-0.10561156,-0.00855249,0.02045205,-0.01410470,0.08537777,0.3
 8812528,-0.10661768,-0.08719085,-0.18524479,-0.04417310,0.01411155,-0.
 03512527,0.16687691,0.04881522,0.32270109,0.00441695,0.01749976,0.0037
 6838,-0.07834966,-0.00871919,-0.00779551,-0.00518443,0.00578924,-0.009
 63994,0.50624370,0.03327462,-0.05352744,0.03678500,-0.00325986,-0.1384
 6022,-0.02676154,0.01258283,-0.04062305,0.00461100,-0.02648816,0.48371
 437,0.00206954,0.01338475,0.01204200,-0.00670654,-0.03712385,-0.091254
 58,-0.01922243,0.01601062,-0.02267015,-0.02101424,-0.06780536,0.519868
 54,0.00441477,-0.01750275,0.00376529,-0.00518519,-0.00578986,-0.009640
 69,-0.07834929,0.00871760,-0.00779365,-0.12584463,-0.01103529,-0.02180
 393,0.50624577,-0.03327731,-0.05352075,-0.03679090,-0.01258265,-0.0406
 2050,-0.00461222,0.00325809,-0.13846644,0.02675750,0.01104032,-0.05180
 885,0.00902669,0.02648936,0.48369996,0.00206608,-0.01339053,0.01203752
 ,-0.01922423,-0.01601149,-0.02267206,-0.00670485,0.03711983,-0.0912487
 4,-0.02180328,-0.00902175,-0.09610908,-0.02100890,0.06780277,0.5198807
 4,-0.00140624,0.00001344,-0.00156468,0.00112440,0.00649836,0.00429862,
 0.00054618,0.00048292,0.00061715,-0.16998429,0.01477949,0.05604405,-0.
 02810718,0.00163379,0.00980042,0.51436019,-0.00121425,0.00021542,-0.00
 921039,0.03743324,-0.03421657,-0.02404602,0.00018424,0.00242567,0.0015
 7381,0.00726487,-0.07238784,0.00043703,-0.00108393,0.00048731,0.002356
 36,0.01361368,0.60307383,-0.00259901,-0.00020579,-0.00198849,0.0136544
 5,-0.01456829,-0.00645334,0.00148230,0.00231050,0.00011482,0.04998186,
 -0.00354273,-0.11413950,-0.01324941,0.00067872,0.01375100,0.04461016,-
 0.00623851,0.57777152,-0.00294301,-0.00147219,-0.00312441,0.00298225,-
 0.00391249,0.00208673,-0.00313580,0.00638627,-0.00356174,-0.08243579,-
 0.00295598,0.00369279,0.00425434,0.01481467,-0.01719399,-0.00464269,-0
 .01741262,0.02674263,0.60283257,-0.00388204,-0.00258875,-0.00402457,0.
 00015366,-0.04542583,0.02821006,-0.00083458,0.00316681,0.00042442,-0.0
 0577149,-0.11525349,0.05849833,0.00603068,0.00137442,0.00284663,-0.002
 91196,0.00587691,-0.00048850,-0.00342965,0.55981526,-0.00252540,-0.001
 50892,-0.00283631,0.00075183,-0.01033585,0.01253825,-0.00048071,0.0020
 9958,-0.00042041,0.00653883,0.07160763,-0.17473061,-0.00214196,0.01053
 515,-0.01404395,0.00676638,0.01285430,-0.02186156,-0.00584114,0.047270
 26,0.54026402,-0.00140619,-0.00001322,-0.00156430,0.00054615,-0.000482
 91,0.00061704,0.00112265,-0.00650017,0.00429898,-0.02810729,-0.0016334
 9,0.00980018,-0.16998501,-0.01478051,0.05604279,-0.00203908,-0.0008448
 6,-0.00327362,-0.00200022,0.00000243,-0.00101126,0.51435932,0.00121460
 ,0.00021452,0.00921062,-0.00018429,0.00242606,-0.00157363,-0.03743588,
 -0.03421812,0.02404337,0.00108629,0.00048759,-0.00235796,-0.00726540,-
 0.07238725,-0.00043550,0.00084527,0.00066976,0.00103500,0.00055915,0.0
 0029713,0.00075777,-0.01361419,0.60307364,-0.00259886,0.00020611,-0.00
 198766,0.00148218,-0.00231035,0.00011447,0.01365164,0.01456522,-0.0064
 4986,-0.01324933,-0.00067935,0.01375071,0.04998144,0.00354446,-0.11413
 931,-0.00327358,-0.00103451,-0.00326797,-0.00181352,-0.00069179,-0.000
 41886,0.04460936,0.00623897,0.57777260,-0.00294280,0.00147249,-0.00312
 414,-0.00313604,-0.00638570,-0.00356232,0.00298243,0.00391036,0.002085
 94,0.00425348,-0.01481326,-0.01719543,-0.08243541,0.00295418,0.0036904
 8,-0.00200018,-0.00055887,-0.00181351,-0.00130013,-0.00010668,-0.00000
 107,-0.00464183,0.01741062,0.02674420,0.60283279,0.00388232,-0.0025894
 3,0.00402473,0.00083489,0.00316727,-0.00042397,-0.00015580,-0.04542438
 ,-0.02821529,-0.00603060,0.00137647,-0.00284454,0.00576947,-0.11524217
 ,-0.05849315,-0.00000223,0.00029717,0.00069193,0.00010674,0.00017031,0
 .00007145,0.00291178,0.00587719,0.00048988,0.00342836,0.55982330,-0.00
 252499,0.00150904,-0.00283581,-0.00048073,-0.00209923,-0.00042063,0.00
 075229,0.01033063,0.01253663,-0.00214291,-0.01053364,-0.01404511,0.006
 53625,-0.07160255,-0.17474224,-0.00101125,-0.00075765,-0.00041883,-0.0
 0000106,-0.00007143,-0.00010516,0.00676611,-0.01285212,-0.02186276,-0.
 00584295,-0.04726839,0.54025561,0.00116044,-0.00072806,0.00250061,-0.0
 0557380,0.00556352,0.00319473,-0.00038543,-0.00104732,-0.00062029,0.00
 213390,0.02366249,0.00387111,0.00079001,0.00076790,0.00006399,-0.04800
 382,0.01630825,0.00679682,0.00094148,0.00024181,-0.00067018,0.00004475
 ,-0.00018744,0.00005001,-0.00064509,0.00036410,-0.00053561,0.04862524,
 -0.00119003,0.00082922,-0.00111416,0.00229486,0.00014094,-0.00051632,0
 .00047903,0.00064318,0.00035619,-0.00210783,-0.00436540,0.00086695,0.0
 0004888,-0.00075073,-0.00066589,0.01902166,-0.30085017,-0.07780656,-0.
 00055469,-0.00002556,0.00066045,0.00007286,0.00010001,0.00017842,-0.00
 083691,0.00013980,-0.00069276,-0.01960795,0.32096459,-0.00063556,0.000
 46907,-0.00225762,0.00465009,-0.00394490,-0.00037213,-0.00002317,0.000
 56784,0.00073225,-0.00359833,-0.01329776,-0.00423687,0.00005935,0.0000
 5203,0.00003836,0.00740216,-0.07685363,-0.06935010,-0.00046368,-0.0000
 2505,0.00050629,-0.00005443,-0.00005444,-0.00008339,-0.00069287,-0.000
 08700,0.00006026,-0.00771900,0.08504538,0.07160575,-0.00100214,-0.0002
 6579,-0.00158411,0.00363157,-0.00169247,0.00026809,0.00051889,0.001193
 80,0.00045358,-0.02413817,-0.00589949,-0.01750004,-0.00227458,-0.00037
 722,0.00466155,-0.21222564,-0.04668433,-0.12964764,0.00081038,0.000588
 90,-0.00165287,-0.00095840,0.00041040,-0.00132521,0.00017183,0.0003703
 1,0.00072686,0.00317465,0.00144145,0.00354977,0.22978740,0.00053004,0.
 00017440,0.00100872,-0.00032213,0.00096906,0.00032637,0.00003901,0.000
 07121,-0.00031610,0.00529266,-0.00078967,0.00224572,0.00089326,-0.0002
 4956,-0.00087412,-0.04848918,-0.05804627,-0.03576917,-0.00049273,-0.00
 032227,-0.00010293,0.00017894,-0.00004341,0.00025106,-0.00026219,0.000
 15299,-0.00010128,-0.02324896,-0.00395900,-0.01637519,0.05055101,0.057
 67827,0.00010778,-0.00026987,-0.00002638,-0.00070244,0.00146851,0.0006
 0158,-0.00021537,-0.00023201,0.00038840,0.01500842,0.00367713,0.008950
 60,0.00246791,-0.00050705,-0.00248473,-0.13231993,-0.03629851,-0.14645
 924,0.00089534,0.00003366,0.00103023,0.00068997,-0.00012225,0.00074955
 ,-0.00016835,0.00007182,-0.00087367,-0.00526775,0.00021338,-0.00488422
 ,0.13787811,0.03878663,0.15488458,0.00028517,0.00124088,0.00153063,0.0
 0115726,-0.00096784,-0.00256713,0.00013744,-0.00016113,-0.00115635,-0.
 00044389,-0.01852575,0.02286690,0.00073116,-0.00096126,0.00062640,-0.0
 4643292,-0.00435542,0.00833900,-0.00484088,0.00208991,0.00252053,0.000
 23627,-0.00008155,0.00004145,-0.00048314,-0.00023930,-0.00022860,-0.00
 130222,0.00117518,-0.00232120,0.00183933,0.01535553,-0.01815564,0.0493
 4058,0.00047770,0.00009861,0.00031714,-0.00068869,0.00183062,-0.000506
 50,0.00021301,-0.00022814,-0.00038839,0.00008141,0.00110504,-0.0060105
 5,-0.00005815,0.00032507,0.00097295,-0.00683316,-0.14465768,0.13328942
 ,0.00042615,0.00063173,-0.00050668,-0.00010701,-0.00015531,-0.00022160
 ,-0.00000957,-0.00023740,0.00078141,-0.00138295,-0.01364326,0.02372396
 ,0.00057850,0.00401104,-0.00688536,0.00679472,0.15004892,0.00103178,-0
 .00035128,-0.00072334,-0.00099033,-0.00023888,0.00166923,-0.00062230,-
 0.00065722,0.00054530,-0.00070144,0.00976706,-0.01251675,-0.00064423,0
 .00044338,-0.00072848,0.00983029,0.13274554,-0.22598221,0.00338244,-0.
 00155935,-0.00130808,0.00002160,-0.00010635,0.00009657,-0.00063005,-0.
 00061774,-0.00006390,-0.00076916,-0.00714582,0.00885241,0.00275817,0.0
 1040717,-0.01241458,-0.01201479,-0.14329075,0.24217883,-0.00037007,-0.
 00004286,-0.00031330,0.00042775,0.00044298,0.00036348,0.00062677,0.000
 28155,0.00024201,0.00095601,-0.00028861,0.00208856,0.00008977,-0.00082
 390,0.00103408,0.00067008,-0.00034758,0.00141621,-0.25042662,-0.018473
 63,-0.12472026,-0.00024053,-0.00002728,-0.00043141,-0.00001882,0.00010
 483,-0.00007299,0.00002875,0.00015501,-0.00004997,0.00037808,-0.000256
 80,0.00013325,0.00014311,0.00012865,0.00010723,0.26530969,0.00082131,0
 .00039637,0.00100526,-0.00050461,0.00235330,-0.00142577,0.00065452,-0.
 00151556,0.00060472,0.01829559,0.00016976,0.01189222,-0.00166539,-0.00
 162108,0.00169167,0.00081531,0.00042844,-0.00062047,-0.01970278,-0.046
 13343,-0.01287351,-0.00039554,-0.00049064,0.00022506,0.00038347,-0.000
 19826,0.00020323,-0.00019217,-0.00004044,-0.00015622,-0.00044062,0.000
 22278,0.00007693,0.00011178,-0.00013788,-0.00016726,0.02049542,0.04634
 993,-0.00072260,-0.00068585,-0.00095216,0.00133312,-0.00132265,0.00180
 669,-0.00098714,0.00199138,-0.00069785,-0.02391196,-0.00311974,-0.0163
 8731,0.00337110,0.00269176,-0.00135593,-0.00142759,-0.00070287,0.00088
 925,-0.12238052,-0.01128309,-0.12001554,0.00072689,-0.00004880,0.00019
 983,-0.00034439,0.00007665,0.00010429,0.00003834,-0.00007028,-0.000191
 64,0.00093637,0.00046253,-0.00021796,0.00017976,-0.00003656,0.00049512
 ,0.13291665,0.00920164,0.13034759,0.00034331,-0.00000119,0.00037412,0.
 00123564,0.00047086,-0.00019308,-0.00016796,-0.00042370,0.00001628,-0.
 00267137,0.00003790,-0.00104332,0.00031899,0.00031136,-0.00007472,-0.0
 0026921,-0.00016947,-0.00012775,-0.04816169,-0.02992090,-0.00833314,-0
 .00000654,0.00046160,0.00038232,-0.00008288,0.00008882,-0.00003216,-0.
 00010353,-0.00009673,0.00058860,0.00009668,-0.00015406,0.00006263,-0.0
 0001489,0.00020836,-0.00001780,-0.00127754,-0.02555662,-0.00578590,0.0
 4716755,-0.00183740,0.00017971,-0.00191942,0.00067996,-0.00414348,0.00
 512366,0.00066505,0.00102976,0.00067343,-0.00130494,-0.01481730,-0.010
 25664,-0.00043000,-0.00070280,-0.00023376,0.00051781,0.00026094,-0.000
 72540,-0.02995822,-0.29600547,-0.07548260,-0.00016923,-0.00018997,-0.0
 0002635,0.00014639,-0.00013468,0.00004543,-0.00035314,0.00053283,0.000
 34357,0.00012400,0.00005415,0.00005301,0.00008065,0.00030752,0.0001722
 2,0.00108935,-0.00032858,0.00072004,0.03239488,0.31795585,0.00117074,0
 .00042306,0.00134428,-0.00049330,0.00682525,-0.00411272,0.00004627,-0.
 00087960,-0.00027225,0.00327082,0.02144041,0.01055674,-0.00061038,-0.0
 0002634,0.00067442,-0.00005202,-0.00038911,0.00060371,-0.00849187,-0.0
 7797853,-0.07140604,-0.00015420,-0.00030343,-0.00015278,0.00001848,0.0
 0040821,-0.00013026,0.00042750,0.00013860,-0.00035193,0.00003608,-0.00
 000467,-0.00008399,-0.00024841,-0.00016868,0.00008785,0.00040061,-0.01
 478985,-0.00464386,0.00971910,0.08136351,0.07275605,0.00034724,-0.0000
 3671,0.00055257,0.00041658,-0.00005130,-0.00065943,-0.00015310,-0.0004
 3190,-0.00014349,-0.00126161,-0.00022338,-0.00021322,-0.00020144,-0.00
 016795,-0.00017471,0.00075041,-0.00082913,0.00068207,-0.21098142,0.056
 21122,0.13061441,-0.00143136,0.00042435,-0.00179708,-0.00006165,-0.000
 10836,-0.00002197,-0.00003052,0.00008856,-0.00018207,0.00039765,0.0002
 0276,-0.00013711,0.00006845,0.00021769,0.00022809,-0.01675928,0.006856
 85,0.01627893,0.00407491,-0.00213727,-0.00459680,0.22594391,0.00041925
 ,-0.00014762,0.00096658,-0.00009974,0.00265102,-0.00167728,-0.00027375
 ,-0.00032054,-0.00028014,-0.01685463,0.00394138,0.01164567,0.00009552,
 0.00043473,-0.00080943,0.00023948,-0.00259370,0.00328407,0.05677798,-0
 .06431345,-0.04443837,0.00047566,0.00046986,0.00078162,-0.00009344,-0.
 00005920,-0.00008768,-0.00003527,0.00023598,0.00015535,0.00021774,-0.0
 0006043,-0.00006493,-0.00098229,0.00040776,0.00088122,-0.00264950,-0.0
 0025652,0.00214958,0.02280697,-0.00483487,-0.01616883,-0.06056097,0.06
 493307,0.00042475,0.00011849,-0.00004154,-0.00145920,-0.00119337,0.002
 15693,-0.00062775,-0.00023284,0.00026507,0.01999244,-0.00969301,-0.015
 01638,0.00191803,-0.00007393,0.00032500,-0.00103068,0.00396035,-0.0037
 5011,0.12793029,-0.04170750,-0.14661149,-0.00001592,-0.00034929,-0.000
 34388,-0.00015983,-0.00011827,0.00015413,-0.00034632,0.00002434,0.0002
 2173,0.00013597,0.00009715,0.00009242,0.00157713,-0.00000748,-0.000549
 32,-0.01296281,0.00501596,0.01055708,0.00490469,-0.00016829,-0.0047801
 8,-0.13898580,0.04394396,0.15689473,0.00116053,0.00072782,0.00250071,-
 0.00038540,0.00104742,-0.00062021,-0.00557413,-0.00556354,0.00319425,0
 .00078997,-0.00076797,0.00006395,0.00213301,-0.02366309,0.00386892,0.0
 0004475,0.00018744,0.00005002,-0.00064508,-0.00036402,-0.00053562,-0.0
 4800523,-0.01631911,0.00679850,0.00094149,-0.00024179,-0.00067023,-0.0
 0004523,0.00004087,0.00003345,0.00001574,-0.00000376,-0.00002993,0.000
 07008,-0.00000503,-0.00006889,0.00010393,0.00013263,-0.00000094,-0.000
 58850,0.00043407,-0.00022327,-0.00045846,-0.00018983,-0.00054182,0.048
 62683,0.00119007,0.00082908,0.00111433,-0.00047898,0.00064324,-0.00035
 617,-0.00229504,0.00014087,0.00051624,-0.00004895,-0.00075076,0.000665
 82,0.00210789,-0.00436564,-0.00086713,-0.00007286,0.00010002,-0.000178
 40,0.00083701,0.00013972,0.00069280,-0.01903259,-0.30086266,0.07778533
 ,0.00055469,-0.00002552,-0.00066048,-0.00004087,0.00003878,0.00003223,
 -0.00006502,0.00000112,0.00001398,0.00006741,0.00000102,-0.00007307,0.
 00038689,0.00020614,-0.00022255,0.00001761,0.00028965,0.00017590,0.000
 05736,-0.00036080,-0.00041123,0.01961966,0.32097831,-0.00063549,-0.000
 46876,-0.00225756,-0.00002324,-0.00056784,0.00073217,0.00465006,0.0039
 4475,-0.00037175,0.00005935,-0.00005211,0.00003841,-0.00359760,0.01329
 793,-0.00423575,-0.00005443,0.00005446,-0.00008341,-0.00069280,0.00008
 704,0.00006032,0.00740356,0.07683239,-0.06933610,-0.00046362,0.0000250
 2,0.00050624,0.00003344,-0.00003223,0.00000788,-0.00000569,-0.00001520
 ,-0.00000119,0.00001962,0.00003489,-0.00002435,0.00008671,-0.00009165,
 -0.00010880,-0.00022848,-0.00009920,0.00011079,-0.00037570,-0.00046902
 ,-0.00039697,-0.00772065,-0.08502248,0.07159039,-0.00100214,0.00026598
 ,-0.00158413,0.00051884,-0.00119386,0.00045348,0.00363165,0.00169233,0
 .00026822,-0.00227461,0.00037689,0.00466161,-0.02413816,0.00590203,-0.
 01749955,-0.00095842,-0.00041024,-0.00132526,0.00017183,-0.00037038,0.
 00072683,-0.21222208,0.04670246,-0.12964185,0.00081037,-0.00058881,-0.
 00165292,0.00001574,0.00006502,-0.00000568,-0.00047690,0.00011009,0.00
 031060,0.00003669,-0.00005756,0.00006316,0.00008663,0.00006756,-0.0001
 2002,-0.00002235,0.00005842,0.00004172,0.00010859,-0.00008698,-0.00002
 878,0.00317554,-0.00144206,0.00355030,0.22978364,-0.00053001,0.0001744
 7,-0.00100863,-0.00003901,0.00007121,0.00031605,0.00032209,0.00096914,
 -0.00032635,-0.00089340,-0.00024966,0.00087413,-0.00529307,-0.00078915
 ,-0.00224588,-0.00017896,-0.00004337,-0.00025108,0.00026220,0.00015300
 ,0.00010134,0.04850754,-0.05805672,0.03578243,0.00049261,-0.00032227,0
 .00010287,0.00000377,0.00000112,0.00001520,-0.00011010,0.00003737,0.00
 003311,0.00001354,0.00001167,-0.00001130,0.00007655,0.00015009,-0.0000
 5668,-0.00029729,0.00023879,0.00004944,0.00008098,-0.00031657,-0.00001
 932,0.02324916,-0.00396135,0.01637509,-0.05057062,0.05768944,0.0001077
 4,0.00026988,-0.00002644,-0.00021536,0.00023198,0.00038845,-0.00070249
 ,-0.00146845,0.00060142,0.00246786,0.00050715,-0.00248461,0.01500783,-
 0.00367865,0.00895006,0.00068996,0.00012215,0.00074954,-0.00016833,-0.
 00007172,-0.00087368,-0.13231396,0.03631189,-0.14645237,0.00089539,-0.
 00003381,0.00103024,-0.00002993,-0.00001398,-0.00000119,0.00031059,-0.
 00003311,-0.00008088,-0.00008549,0.00000136,0.00005800,-0.00019972,0.0
 0001066,0.00024800,0.00002605,0.00001216,0.00000364,-0.00033119,0.0001
 1539,0.00053024,-0.00526566,-0.00021309,-0.00488275,0.13787185,-0.0388
 0103,0.15487719,0.00028511,-0.00124102,0.00153051,0.00013744,0.0001612
 2,-0.00115633,0.00115733,0.00096807,-0.00256702,0.00073120,0.00096119,
 0.00062645,-0.00044310,0.01852374,0.02286878,0.00023628,0.00008153,0.0
 0004147,-0.00048314,0.00023933,-0.00022862,-0.04643245,0.00435043,0.00
 833366,-0.00484097,-0.00208991,0.00252037,0.00007008,-0.00006741,0.000
 01961,0.00003669,-0.00001353,-0.00008549,0.00008780,0.00006559,-0.0000
 3250,0.00017207,-0.00009608,-0.00011365,0.00007886,-0.00017623,0.00000
 466,-0.00080045,0.00075898,-0.00071516,-0.00130221,-0.00117547,-0.0023
 2226,0.00183865,-0.01535381,-0.01815676,0.04934002,-0.00047781,0.00009
 867,-0.00031711,-0.00021295,-0.00022824,0.00038836,0.00068882,0.001830
 46,0.00050659,0.00005819,0.00032516,-0.00097287,-0.00008127,0.00110465
 ,0.00601084,0.00010699,-0.00015535,0.00022158,0.00000964,-0.00023740,-
 0.00078142,0.00682807,-0.14463403,-0.13328237,-0.00042623,0.00063165,0
 .00050675,0.00000503,0.00000102,-0.00003489,0.00005755,0.00001167,-0.0
 0000136,-0.00006560,-0.00002659,0.00007608,-0.00029227,0.00012141,0.00
 027982,-0.00007951,0.00016874,0.00003356,0.00035659,-0.00001849,0.0007
 2098,0.00138248,-0.01364178,-0.02372590,-0.00057866,0.00401202,0.00688
 760,-0.00678932,0.15002349,0.00103172,0.00035130,-0.00072333,-0.000622
 28,0.00065717,0.00054540,-0.00099025,0.00023893,0.00166929,-0.00064424
 ,-0.00044326,-0.00072862,-0.00070186,-0.00976582,-0.01251712,0.0000216
 1,0.00010633,0.00009660,-0.00063004,0.00061777,-0.00006392,0.00982522,
 -0.13273855,-0.22600632,0.00338247,0.00155939,-0.00130791,-0.00006888,
 0.00007308,-0.00002435,0.00006316,0.00001130,0.00005800,-0.00003251,-0
 .00007608,-0.00000806,0.00000116,-0.00001255,0.00007837,-0.00018186,0.
 00006302,0.00000359,-0.00068207,0.00020710,0.00021084,-0.00076874,0.00
 714382,0.00885090,0.00275767,-0.01040577,-0.01241486,-0.01200922,0.143
 28286,0.24220482,0.00034722,0.00003664,0.00055253,-0.00015307,0.000431
 91,-0.00014345,0.00041659,0.00005145,-0.00065936,-0.00020142,0.0001679
 9,-0.00017466,-0.00126087,0.00022363,-0.00021371,-0.00143135,-0.000424
 10,-0.00179711,-0.00006164,0.00010836,-0.00002196,0.00075044,0.0008289
 3,0.00068202,-0.21098512,-0.05621706,0.13061133,-0.00045845,-0.0000573
 1,-0.00037568,0.00010859,-0.00008097,-0.00033119,-0.00080047,-0.000356
 49,-0.00068210,0.00005486,-0.00002318,-0.00002055,0.00001580,-0.000027
 85,0.00000382,-0.00002571,-0.00002475,-0.00000666,-0.00003052,-0.00008
 854,-0.00018209,0.00039763,-0.00020277,-0.00013713,0.00006848,-0.00021
 770,0.00022804,0.22594776,-0.00041932,-0.00014751,-0.00096662,0.000273
 80,-0.00032061,0.00028010,0.00009997,0.00265076,0.00167735,-0.00009567
 ,0.00043465,0.00080944,0.01685302,0.00394087,-0.01164403,-0.00047558,0
 .00046993,-0.00078146,0.00009346,-0.00005923,0.00008766,-0.00023952,-0
 .00259308,-0.00328399,-0.05678358,-0.06431670,0.04444080,0.00018988,-0
 .00036089,0.00046903,0.00008696,-0.00031656,-0.00011545,-0.00075887,-0
 .00001835,-0.00020709,-0.00001903,0.00005745,0.00004929,-0.00005225,0.
 00006690,-0.00003585,0.00002475,-0.00001215,0.00006004,0.00003531,0.00
 023600,-0.00015534,-0.00021777,-0.00006041,0.00006492,0.00098217,0.000
 40781,-0.00088115,0.06056697,0.06493616,0.00042470,-0.00011852,-0.0000
 4165,-0.00062772,0.00023281,0.00026512,-0.00145914,0.00119349,0.002157
 21,0.00191802,0.00007386,0.00032509,0.01999429,0.00969392,-0.01501660,
 -0.00001594,0.00034936,-0.00034391,-0.00015982,0.00011826,0.00015415,-
 0.00103086,-0.00396021,-0.00375076,0.12792710,0.04171005,-0.14660460,-
 0.00054178,0.00041125,-0.00039689,-0.00002878,0.00001924,0.00053022,-0
 .00071525,-0.00072096,0.00021075,-0.00005272,-0.00002034,-0.00006037,0
 .00006435,-0.00005889,0.00000501,-0.00000666,-0.00006005,0.00016120,-0
 .00034632,-0.00002433,0.00022171,0.00013595,-0.00009717,0.00009241,0.0
 0157721,0.00000750,-0.00054940,-0.13898238,-0.04394695,0.15688774,-0.0
 0037010,0.00004292,-0.00031334,0.00062673,-0.00028166,0.00024196,0.000
 42775,-0.00044294,0.00036350,0.00008988,0.00082373,0.00103408,0.000955
 24,0.00028841,0.00208807,-0.00024050,0.00002731,-0.00043141,-0.0000188
 4,-0.00010483,-0.00007301,0.00067007,0.00034745,0.00141628,-0.25042590
 ,0.01849277,-0.12471775,0.00010391,-0.00038689,0.00008668,0.00008662,-
 0.00007653,-0.00019972,0.00017208,0.00029226,0.00000119,0.00003876,0.0
 0001360,-0.00002116,-0.00000532,-0.00000892,0.00000972,0.00005486,0.00
 001903,-0.00005272,0.00002875,-0.00015501,-0.00004998,0.00037812,0.000
 25678,0.00013327,0.00014310,-0.00012868,0.00010723,-0.01675944,0.00265
 129,-0.01296268,0.26530890,-0.00082121,0.00039643,-0.00100512,-0.00065
 452,-0.00151529,-0.00060480,0.00050459,0.00235304,0.00142579,0.0016650
 2,-0.00162079,-0.00169173,-0.01829352,0.00017126,-0.01189077,0.0003954
 7,-0.00049064,-0.00022510,-0.00038345,-0.00019821,-0.00020326,-0.00081
 519,0.00042834,0.00062038,0.01972170,-0.04613708,0.01288491,-0.0001326
 3,0.00020613,0.00009167,-0.00006755,0.00015009,-0.00001066,0.00009609,
 0.00012142,0.00001255,-0.00001359,0.00012894,-0.00014211,0.00001076,0.
 00011584,-0.00013570,0.00002318,0.00005745,0.00002035,0.00019217,-0.00
 004046,0.00015624,0.00044053,0.00022280,-0.00007690,-0.00011181,-0.000
 13789,0.00016720,-0.00685767,-0.00025571,-0.00501640,-0.02051586,0.046
 35317,-0.00072264,0.00068600,-0.00095219,-0.00098729,-0.00199142,-0.00
 069809,0.00133323,0.00132264,0.00180692,0.00337113,-0.00269192,-0.0013
 5632,-0.02391350,0.00312216,-0.01638804,0.00072693,0.00004871,0.000199
 81,-0.00034443,-0.00007666,0.00010426,-0.00142764,0.00070289,0.0008893
 7,-0.12237795,0.01129441,-0.12001263,-0.00000094,0.00022258,-0.0001087
 7,-0.00012002,0.00005667,0.00024801,-0.00011366,-0.00027981,0.00007835
 ,-0.00002115,0.00014213,-0.00016643,0.00000097,0.00003978,0.00003886,-
 0.00002055,-0.00004928,-0.00006037,0.00003836,0.00007029,-0.00019162,0
 .00093639,-0.00046253,-0.00021801,0.00017975,0.00003650,0.00049514,0.0
 1627833,-0.00215118,0.01055643,0.13291407,-0.00921427,0.13034516,0.000
 34339,0.00000115,0.00037421,-0.00016797,0.00042375,0.00001628,0.001235
 60,-0.00047109,-0.00019336,0.00031899,-0.00031140,-0.00007474,-0.00267
 131,-0.00003835,-0.00104288,-0.00000655,-0.00046164,0.00038228,-0.0000
 8289,-0.00008882,-0.00003216,-0.00026922,0.00016950,-0.00012770,-0.048
 15941,0.02991222,-0.00832760,-0.00058852,-0.00001755,-0.00022848,-0.00
 002234,0.00029729,0.00002608,0.00007887,0.00007953,-0.00018185,-0.0000
 0532,-0.00001075,0.00000097,0.00006453,0.00005088,-0.00011749,0.000015
 80,0.00005224,0.00006436,-0.00010351,0.00009670,0.00058860,0.00009668,
 0.00015405,0.00006264,-0.00001490,-0.00020835,-0.00001783,0.00407410,-
 0.02280770,0.00490264,-0.00127660,0.02555721,-0.00578366,0.04716508,0.
 00183731,0.00017950,0.00191930,-0.00066500,0.00102975,-0.00067332,-0.0
 0068015,-0.00414238,-0.00512365,0.00043002,-0.00070283,0.00023364,0.00
 130419,-0.01481635,0.01025440,0.00016924,-0.00018999,0.00002633,-0.000
 14639,-0.00013462,-0.00004543,-0.00051778,0.00026085,0.00072537,0.0299
 4954,-0.29602150,0.07546280,-0.00043402,0.00028968,0.00009923,-0.00005
 841,0.00023878,-0.00001214,0.00017623,0.00016874,-0.00006300,0.0000089
 2,0.00011584,-0.00003977,-0.00005086,0.00026794,-0.00025605,0.00002786
 ,0.00006688,0.00005889,0.00035312,0.00053285,-0.00034352,-0.00012401,0
 .00005415,-0.00005300,-0.00008061,0.00030753,-0.00017220,0.00213733,-0
 .00483551,0.00016808,-0.00108935,-0.00033079,-0.00071942,-0.03238542,0
 .31797290,0.00117090,-0.00042321,0.00134442,0.00004626,0.00087972,-0.0
 0027223,-0.00049366,-0.00682524,-0.00411378,-0.00061034,0.00002623,0.0
 0067444,0.00327014,-0.02144281,0.01055573,-0.00015417,0.00030344,-0.00
 015275,0.00001846,-0.00040821,-0.00013030,-0.00005205,0.00038908,0.000
 60380,-0.00848622,0.07795874,-0.07139230,-0.00022332,-0.00017587,0.000
 11079,0.00004172,-0.00004942,0.00000363,0.00000467,-0.00003354,0.00000
 358,0.00000972,0.00013571,0.00003887,-0.00011749,0.00025609,-0.0001595
 5,0.00000382,0.00003586,0.00000502,0.00042753,-0.00013854,-0.00035197,
 0.00003607,0.00000468,-0.00008400,-0.00024841,0.00016871,0.00008785,-0
 .00459600,0.01616907,-0.00477873,0.00040108,0.01479015,-0.00464259,0.0
 0971312,-0.08134191,0.07274147,-0.01681124,-0.00000180,0.00199625,0.00
 278827,0.00819144,-0.00128994,0.00278778,-0.00819238,-0.00129084,0.000
 96308,-0.00046450,-0.00187067,0.00096310,0.00046475,-0.00187073,0.0000
 1576,-0.00030413,0.00008546,0.00016702,0.00059267,0.00035054,0.0000157
 8,0.00030410,0.00008550,0.00016699,-0.00059274,0.00035050,0.00004766,0
 .00003990,-0.00003961,0.00004407,-0.00004977,0.00003282,-0.00006589,-0
 .00006497,-0.00006852,0.00001193,-0.00006028,0.00005428,-0.00002448,0.
 00016174,-0.00016179,-0.00001342,-0.00001169,-0.00001422,0.00004765,-0
 .00003990,-0.00003960,0.00004407,0.00004977,0.00003283,-0.00006588,0.0
 0006498,-0.00006851,-0.00001342,0.00001169,-0.00001421,0.00001193,0.00
 006027,0.00005428,-0.00002448,-0.00016174,-0.00016182,0.00894373,-0.00
 000181,-0.11719488,-0.00000481,0.00416089,-0.02419871,0.00425397,-0.00
 416183,-0.02419689,-0.00425641,-0.00018852,0.00380287,0.00247248,0.000
 18877,0.00380300,-0.00247202,-0.00016896,-0.00067379,-0.00013606,0.000
 14793,-0.00092758,-0.00045945,0.00016892,-0.00067377,0.00013599,-0.000
 14799,-0.00092756,0.00045934,0.00028402,-0.00012784,-0.00023548,0.0000
 4038,0.00001423,0.00009141,-0.00010292,0.00003546,-0.00001612,0.000064
 90,0.00002194,0.00010826,-0.00000656,-0.00031148,0.00027870,-0.0000251
 8,0.00009621,-0.00004600,-0.00028401,-0.00012784,0.00023546,-0.0000403
 8,0.00001424,-0.00009141,0.00010293,0.00003545,0.00001613,0.00002519,0
 .00009620,0.00004601,-0.00006490,0.00002195,-0.00010826,0.00000655,-0.
 00031144,-0.00027871,0.00000259,0.16173026,0.00198837,-0.00000484,-0.0
 1631042,-0.00165048,0.01049657,0.00309781,-0.00165128,-0.01049901,0.00
 309647,-0.00126560,-0.00085332,-0.00053063,-0.00126555,0.00085380,-0.0
 0053078,0.00009655,0.00061937,0.00007516,0.00011867,0.00028000,0.00016
 840,0.00009654,-0.00061944,0.00007512,0.00011864,-0.00028010,0.0001684
 2,-0.00018340,0.00004326,0.00012338,0.00004435,-0.00003139,-0.00001039
 ,-0.00006706,0.00001180,0.00004309,0.00002464,-0.00004757,0.00003276,-
 0.00000339,0.00010462,-0.00009138,-0.00003204,-0.00006141,-0.00002414,
 -0.00018343,-0.00004328,0.00012340,0.00004435,0.00003139,-0.00001039,-
 0.00006705,-0.00001180,0.00004309,-0.00003203,0.00006142,-0.00002413,0
 .00002463,0.00004757,0.00003276,-0.00000340,-0.00010465,-0.00009141,0.
 00384797,0.00000700,0.01054379\\0.00000087,-0.00006753,-0.00000059,-0.
 00001107,0.00002718,-0.00002781,0.00001036,0.00002727,0.00002823,0.000
 03830,-0.00001421,0.00003182,-0.00003825,-0.00001405,-0.00003188,0.000
 00152,0.00001215,0.00000005,-0.00000184,0.00000252,-0.00000149,-0.0000
 0140,0.00001195,0.,0.00000172,0.00000250,0.00000141,-0.00000377,0.0000
 0023,-0.00000123,0.00000183,0.00000010,-0.00000368,0.00000418,-0.00000
 025,0.00000188,0.00000218,0.00000015,-0.00000195,0.00000161,0.00000061
 ,-0.00000142,0.00000733,-0.00000280,0.00000169,0.00000376,0.00000020,0
 .00000129,-0.00000179,0.00000011,0.00000367,-0.00000416,-0.00000026,-0
 .00000182,-0.00000743,-0.00000281,-0.00000168,-0.00000218,0.00000013,0
 .00000196,-0.00000161,0.00000062,0.00000143,-0.00000017,0.00001621,0.0
 0000012\\\@


 NOTHING PUZZLES ME MORE THAN TIME AND SPACE; AND YET NOTHING TROUBLES ME LESS
                                                          -- CHARLES LAMB (1810)
 Job cpu time:       0 days  0 hours 25 minutes  5.3 seconds.
 Elapsed time:       0 days  0 hours  0 minutes 38.4 seconds.
 File lengths (MBytes):  RWF=    128 Int=      0 D2E=      0 Chk=      5 Scr=      1
 Normal termination of Gaussian 16 at Thu Apr 25 01:56:39 2024.
