    77
 Generated by Multiwfn
C       3.58710000     -5.12090000      7.13530000
C       4.81290000     -4.22630000      7.05900000
C       6.05530000     -4.88970000      6.42000000
C       6.59510000     -6.03360000      7.30970000
C       8.11580000     -6.06640000      7.35760000
C       5.82690000     -5.26380000      4.93690000
O       5.48890000     -6.64890000      4.77830000
C       4.56550000     -6.88990000      3.81790000
O       3.35600000     -6.74240000      3.99470000
C       5.12830000     -7.50050000      2.55690000
C       6.53270000     -8.08090000      2.61400000
N       5.09760000     -6.46850000      1.53670000
P       3.79610000     -6.12210000      0.59050000
O       2.44650000     -6.67460000      0.96380000
O       4.23630000     -6.55630000     -0.92110000
C       3.85520000     -7.81880000     -1.49610000
C       4.40950000     -9.01410000     -0.71390000
C       5.58610000     -9.72080000     -1.36380000
C       5.67160000    -11.02800000     -0.57360000
C       4.23170000    -11.22610000     -0.03680000
O       3.46970000    -10.09120000     -0.54150000
C       4.15970000    -11.22320000      1.45180000
N       4.09260000    -11.22440000      2.60910000
C       3.58840000    -12.50710000     -0.51150000
C       4.16450000    -13.71690000     -0.88630000
C       3.15560000    -14.70690000     -0.92890000
C       1.98360000    -14.08370000     -0.58490000
N       2.22220000    -12.74130000     -0.46320000
N       1.23660000    -11.83280000     -0.23150000
C       0.05160000    -12.35800000     -0.09230000
N      -0.27910000    -13.69850000     -0.09070000
C       0.65090000    -14.58530000     -0.33130000
N       0.37870000    -15.94100000     -0.31230000
O       6.63460000    -10.98420000      0.47710000
O       6.78720000     -8.98200000     -1.34950000
O       3.83980000     -4.50450000      0.50410000
C       2.89810000     -3.63150000      0.96960000
C       2.08370000     -3.85580000      2.08110000
C       1.13420000     -2.89800000      2.44570000
C       1.02930000     -1.70910000      1.72240000
C       1.89300000     -1.46360000      0.65280000
C       2.82940000     -2.42150000      0.27880000
H       3.83360000     -6.13540000      7.46350000
H       2.86460000     -4.70900000      7.84890000
H       3.09150000     -5.17780000      6.16160000
H       4.55830000     -3.31980000      6.49780000
H       5.06910000     -3.88240000      8.06910000
H       6.82090000     -4.09850000      6.41150000
H       6.23360000     -5.91080000      8.33820000
H       6.22390000     -7.00920000      6.98350000
H       5.04700000     -4.62270000      4.50200000
H       6.74660000     -5.08110000      4.36520000
H       8.51160000     -5.17350000      7.85560000
H       8.45440000     -6.93840000      7.92500000
H       8.54880000     -6.12780000      6.35480000
H       4.42900000     -8.30470000      2.30100000
H       6.94250000     -8.22290000      1.60430000
H       7.23670000     -7.44030000      3.15120000
H       6.50820000     -9.06050000      3.09440000
H       5.81680000     -5.76470000      1.68820000
H       2.76550000     -7.84350000     -1.59000000
H       4.26350000     -7.82910000     -2.51340000
H       4.69670000     -8.67620000      0.27620000
H       5.34120000     -9.98120000     -2.39780000
H       6.00250000    -11.81690000     -1.25470000
H       6.62800000     -8.15670000     -0.85760000
H       7.32890000    -10.34260000      0.23440000
H       5.21780000    -13.89940000     -1.01630000
H       3.28550000    -15.76410000     -1.12430000
H      -0.78880000    -11.66260000      0.05820000
H       0.43720000    -16.38600000     -1.22810000
H       0.95050000    -16.47170000      0.34720000
H       2.14890000     -4.76210000      2.67740000
H       3.51160000     -2.22340000     -0.54600000
H       0.47360000     -3.07960000      3.28930000
H       0.27620000     -0.97440000      1.98850000
H       1.83710000     -0.52650000      0.10490000
