%mem=90GB
%nprocshared=32
%chk=ADA-trans_opted.chk
#p opt=(calcfc,recalc=4) freq 6-311g(d) em=gd3 m062x
scf=(novaracc,noincfock)

opt_ADA-trans

0 1
 N                  0.64108100    1.19675800    0.00005900
 C                  1.27855400    0.02025400    0.00003600
 N                  0.66186500   -1.16756100    0.00005500
 N                 -0.64109000   -1.19676900    0.00005900
 C                 -1.27856000   -0.02027500    0.00003500
 N                 -0.66186300    1.16755300    0.00005500
 C                 -2.76686100   -0.01073300    0.00000100
 C                  2.76686500    0.01072400    0.00000200
 C                  3.45223800   -1.20498500    0.00019500
 C                  4.83965300   -1.17473300    0.00015800
 C                  5.48295100    0.05489900   -0.00006800
 C                  4.70177600    1.20812600   -0.00024100
 N                  3.37445500    1.19722100   -0.00020800
 C                 -3.45222300    1.20498400    0.00019300
 C                 -4.83963800    1.17474700    0.00015900
 C                 -5.48295000   -0.05487700   -0.00006600
 C                 -4.70178600   -1.20811400   -0.00024100
 N                 -3.37446700   -1.19722400   -0.00020900
 H                  2.90049000   -2.13518800    0.00037500
 H                  5.40703400   -2.09828400    0.00031300
 H                  6.56369200    0.12726100   -0.00010400
 H                  5.16687900    2.18941200   -0.00041000
 H                 -2.90046600    2.13518100    0.00037300
 H                 -5.40700900    2.09830400    0.00031500
 H                 -6.56369100   -0.12722700   -0.00010000
 H                 -5.16690100   -2.18939400   -0.00041100

